NAME COMPONENTS
ROWS
 N  COST
 E  R0_0
 E  R0_1
 E  R0_2
 E  R0_3
 E  R0_4
 E  R0_5
 E  R0_6
 E  R0_7
 E  R0_8
 E  R0_9
 E  R0_10
 E  R0_11
 E  R0_12
 E  R0_13
 E  R0_14
 E  R0_15
 E  R0_16
 E  R0_17
 E  R0_18
 E  R0_19
 E  R0_20
 E  R0_21
 E  R0_22
 E  R0_23
 E  R1_0
 E  R1_1
 E  R1_2
 E  R1_3
 E  R1_4
 E  R1_5
 E  R1_6
 E  R1_7
 E  R1_8
 E  R1_9
 E  R1_10
 E  R1_11
 E  R1_12
 E  R1_13
 E  R1_14
 E  R1_15
 E  R1_16
 E  R1_17
 E  R1_18
 E  R1_19
 E  R1_20
 E  R1_21
 E  R1_22
 E  R1_23
 E  R2_0
 E  R2_1
 E  R2_2
 E  R2_3
 E  R2_4
 E  R2_5
 E  R2_6
 E  R2_7
 E  R2_8
 E  R2_9
 E  R2_10
 E  R2_11
 E  R2_12
 E  R2_13
 E  R2_14
 E  R2_15
 E  R2_16
 E  R2_17
 E  R2_18
 E  R2_19
 E  R2_20
 E  R2_21
 E  R2_22
 E  R2_23
 E  R3_0
 E  R3_1
 E  R3_2
 E  R3_3
 E  R3_4
 E  R3_5
 E  R3_6
 E  R3_7
 E  R3_8
 E  R3_9
 E  R3_10
 E  R3_11
 E  R3_12
 E  R3_13
 E  R3_14
 E  R3_15
 E  R3_16
 E  R3_17
 E  R3_18
 E  R3_19
 E  R3_20
 E  R3_21
 E  R3_22
 E  R3_23
 E  R4_0
 E  R4_1
 E  R4_2
 E  R4_3
 E  R4_4
 E  R4_5
 E  R4_6
 E  R4_7
 E  R4_8
 E  R4_9
 E  R4_10
 E  R4_11
 E  R4_12
 E  R4_13
 E  R4_14
 E  R4_15
 E  R4_16
 E  R4_17
 E  R4_18
 E  R4_19
 E  R4_20
 E  R4_21
 E  R4_22
 E  R4_23
 E  R5_0
 E  R5_1
 E  R5_2
 E  R5_3
 E  R5_4
 E  R5_5
 E  R5_6
 E  R5_7
 E  R5_8
 E  R5_9
 E  R5_10
 E  R5_11
 E  R5_12
 E  R5_13
 E  R5_14
 E  R5_15
 E  R5_16
 E  R5_17
 E  R5_18
 E  R5_19
 E  R5_20
 E  R5_21
 E  R5_22
 E  R5_23
 E  R6_0
 E  R6_1
 E  R6_2
 E  R6_3
 E  R6_4
 E  R6_5
 E  R6_6
 E  R6_7
 E  R6_8
 E  R6_9
 E  R6_10
 E  R6_11
 E  R6_12
 E  R6_13
 E  R6_14
 E  R6_15
 E  R6_16
 E  R6_17
 E  R6_18
 E  R6_19
 E  R6_20
 E  R6_21
 E  R6_22
 E  R6_23
 E  R7_0
 E  R7_1
 E  R7_2
 E  R7_3
 E  R7_4
 E  R7_5
 E  R7_6
 E  R7_7
 E  R7_8
 E  R7_9
 E  R7_10
 E  R7_11
 E  R7_12
 E  R7_13
 E  R7_14
 E  R7_15
 E  R7_16
 E  R7_17
 E  R7_18
 E  R7_19
 E  R7_20
 E  R7_21
 E  R7_22
 E  R7_23
COLUMNS
    X0_0  R0_0  25
    X0_0  R0_1  1
    X0_0  R0_2  1
    X0_0  R0_3  1
    X0_0  R0_4  1
    X0_0  R0_5  1
    X0_0  R0_6  1
    X0_0  R0_7  1
    X0_0  R0_8  1
    X0_0  R0_9  1
    X0_0  R0_10  1
    X0_0  R0_11  1
    X0_0  R0_12  1
    X0_0  R0_13  1
    X0_0  R0_14  1
    X0_0  R0_15  1
    X0_0  R0_16  1
    X0_0  R0_17  1
    X0_0  R0_18  1
    X0_0  R0_19  1
    X0_0  R0_20  1
    X0_0  R0_21  1
    X0_0  R0_22  1
    X0_0  R0_23  1
    X0_1  R0_0  1
    X0_1  R0_1  25
    X0_1  R0_2  1
    X0_1  R0_3  1
    X0_1  R0_4  1
    X0_1  R0_5  1
    X0_1  R0_6  1
    X0_1  R0_7  1
    X0_1  R0_8  1
    X0_1  R0_9  1
    X0_1  R0_10  1
    X0_1  R0_11  1
    X0_1  R0_12  1
    X0_1  R0_13  1
    X0_1  R0_14  1
    X0_1  R0_15  1
    X0_1  R0_16  1
    X0_1  R0_17  1
    X0_1  R0_18  1
    X0_1  R0_19  1
    X0_1  R0_20  1
    X0_1  R0_21  1
    X0_1  R0_22  1
    X0_1  R0_23  1
    X0_2  R0_0  1
    X0_2  R0_1  1
    X0_2  R0_2  25
    X0_2  R0_3  1
    X0_2  R0_4  1
    X0_2  R0_5  1
    X0_2  R0_6  1
    X0_2  R0_7  1
    X0_2  R0_8  1
    X0_2  R0_9  1
    X0_2  R0_10  1
    X0_2  R0_11  1
    X0_2  R0_12  1
    X0_2  R0_13  1
    X0_2  R0_14  1
    X0_2  R0_15  1
    X0_2  R0_16  1
    X0_2  R0_17  1
    X0_2  R0_18  1
    X0_2  R0_19  1
    X0_2  R0_20  1
    X0_2  R0_21  1
    X0_2  R0_22  1
    X0_2  R0_23  1
    X0_3  R0_0  1
    X0_3  R0_1  1
    X0_3  R0_2  1
    X0_3  R0_3  25
    X0_3  R0_4  1
    X0_3  R0_5  1
    X0_3  R0_6  1
    X0_3  R0_7  1
    X0_3  R0_8  1
    X0_3  R0_9  1
    X0_3  R0_10  1
    X0_3  R0_11  1
    X0_3  R0_12  1
    X0_3  R0_13  1
    X0_3  R0_14  1
    X0_3  R0_15  1
    X0_3  R0_16  1
    X0_3  R0_17  1
    X0_3  R0_18  1
    X0_3  R0_19  1
    X0_3  R0_20  1
    X0_3  R0_21  1
    X0_3  R0_22  1
    X0_3  R0_23  1
    X0_4  R0_0  1
    X0_4  R0_1  1
    X0_4  R0_2  1
    X0_4  R0_3  1
    X0_4  R0_4  25
    X0_4  R0_5  1
    X0_4  R0_6  1
    X0_4  R0_7  1
    X0_4  R0_8  1
    X0_4  R0_9  1
    X0_4  R0_10  1
    X0_4  R0_11  1
    X0_4  R0_12  1
    X0_4  R0_13  1
    X0_4  R0_14  1
    X0_4  R0_15  1
    X0_4  R0_16  1
    X0_4  R0_17  1
    X0_4  R0_18  1
    X0_4  R0_19  1
    X0_4  R0_20  1
    X0_4  R0_21  1
    X0_4  R0_22  1
    X0_4  R0_23  1
    X0_5  R0_0  1
    X0_5  R0_1  1
    X0_5  R0_2  1
    X0_5  R0_3  1
    X0_5  R0_4  1
    X0_5  R0_5  25
    X0_5  R0_6  1
    X0_5  R0_7  1
    X0_5  R0_8  1
    X0_5  R0_9  1
    X0_5  R0_10  1
    X0_5  R0_11  1
    X0_5  R0_12  1
    X0_5  R0_13  1
    X0_5  R0_14  1
    X0_5  R0_15  1
    X0_5  R0_16  1
    X0_5  R0_17  1
    X0_5  R0_18  1
    X0_5  R0_19  1
    X0_5  R0_20  1
    X0_5  R0_21  1
    X0_5  R0_22  1
    X0_5  R0_23  1
    X0_6  R0_0  1
    X0_6  R0_1  1
    X0_6  R0_2  1
    X0_6  R0_3  1
    X0_6  R0_4  1
    X0_6  R0_5  1
    X0_6  R0_6  25
    X0_6  R0_7  1
    X0_6  R0_8  1
    X0_6  R0_9  1
    X0_6  R0_10  1
    X0_6  R0_11  1
    X0_6  R0_12  1
    X0_6  R0_13  1
    X0_6  R0_14  1
    X0_6  R0_15  1
    X0_6  R0_16  1
    X0_6  R0_17  1
    X0_6  R0_18  1
    X0_6  R0_19  1
    X0_6  R0_20  1
    X0_6  R0_21  1
    X0_6  R0_22  1
    X0_6  R0_23  1
    X0_7  R0_0  1
    X0_7  R0_1  1
    X0_7  R0_2  1
    X0_7  R0_3  1
    X0_7  R0_4  1
    X0_7  R0_5  1
    X0_7  R0_6  1
    X0_7  R0_7  25
    X0_7  R0_8  1
    X0_7  R0_9  1
    X0_7  R0_10  1
    X0_7  R0_11  1
    X0_7  R0_12  1
    X0_7  R0_13  1
    X0_7  R0_14  1
    X0_7  R0_15  1
    X0_7  R0_16  1
    X0_7  R0_17  1
    X0_7  R0_18  1
    X0_7  R0_19  1
    X0_7  R0_20  1
    X0_7  R0_21  1
    X0_7  R0_22  1
    X0_7  R0_23  1
    X0_8  R0_0  1
    X0_8  R0_1  1
    X0_8  R0_2  1
    X0_8  R0_3  1
    X0_8  R0_4  1
    X0_8  R0_5  1
    X0_8  R0_6  1
    X0_8  R0_7  1
    X0_8  R0_8  25
    X0_8  R0_9  1
    X0_8  R0_10  1
    X0_8  R0_11  1
    X0_8  R0_12  1
    X0_8  R0_13  1
    X0_8  R0_14  1
    X0_8  R0_15  1
    X0_8  R0_16  1
    X0_8  R0_17  1
    X0_8  R0_18  1
    X0_8  R0_19  1
    X0_8  R0_20  1
    X0_8  R0_21  1
    X0_8  R0_22  1
    X0_8  R0_23  1
    X0_9  R0_0  1
    X0_9  R0_1  1
    X0_9  R0_2  1
    X0_9  R0_3  1
    X0_9  R0_4  1
    X0_9  R0_5  1
    X0_9  R0_6  1
    X0_9  R0_7  1
    X0_9  R0_8  1
    X0_9  R0_9  25
    X0_9  R0_10  1
    X0_9  R0_11  1
    X0_9  R0_12  1
    X0_9  R0_13  1
    X0_9  R0_14  1
    X0_9  R0_15  1
    X0_9  R0_16  1
    X0_9  R0_17  1
    X0_9  R0_18  1
    X0_9  R0_19  1
    X0_9  R0_20  1
    X0_9  R0_21  1
    X0_9  R0_22  1
    X0_9  R0_23  1
    X0_10  R0_0  1
    X0_10  R0_1  1
    X0_10  R0_2  1
    X0_10  R0_3  1
    X0_10  R0_4  1
    X0_10  R0_5  1
    X0_10  R0_6  1
    X0_10  R0_7  1
    X0_10  R0_8  1
    X0_10  R0_9  1
    X0_10  R0_10  25
    X0_10  R0_11  1
    X0_10  R0_12  1
    X0_10  R0_13  1
    X0_10  R0_14  1
    X0_10  R0_15  1
    X0_10  R0_16  1
    X0_10  R0_17  1
    X0_10  R0_18  1
    X0_10  R0_19  1
    X0_10  R0_20  1
    X0_10  R0_21  1
    X0_10  R0_22  1
    X0_10  R0_23  1
    X0_11  R0_0  1
    X0_11  R0_1  1
    X0_11  R0_2  1
    X0_11  R0_3  1
    X0_11  R0_4  1
    X0_11  R0_5  1
    X0_11  R0_6  1
    X0_11  R0_7  1
    X0_11  R0_8  1
    X0_11  R0_9  1
    X0_11  R0_10  1
    X0_11  R0_11  25
    X0_11  R0_12  1
    X0_11  R0_13  1
    X0_11  R0_14  1
    X0_11  R0_15  1
    X0_11  R0_16  1
    X0_11  R0_17  1
    X0_11  R0_18  1
    X0_11  R0_19  1
    X0_11  R0_20  1
    X0_11  R0_21  1
    X0_11  R0_22  1
    X0_11  R0_23  1
    X0_12  R0_0  1
    X0_12  R0_1  1
    X0_12  R0_2  1
    X0_12  R0_3  1
    X0_12  R0_4  1
    X0_12  R0_5  1
    X0_12  R0_6  1
    X0_12  R0_7  1
    X0_12  R0_8  1
    X0_12  R0_9  1
    X0_12  R0_10  1
    X0_12  R0_11  1
    X0_12  R0_12  25
    X0_12  R0_13  1
    X0_12  R0_14  1
    X0_12  R0_15  1
    X0_12  R0_16  1
    X0_12  R0_17  1
    X0_12  R0_18  1
    X0_12  R0_19  1
    X0_12  R0_20  1
    X0_12  R0_21  1
    X0_12  R0_22  1
    X0_12  R0_23  1
    X0_13  R0_0  1
    X0_13  R0_1  1
    X0_13  R0_2  1
    X0_13  R0_3  1
    X0_13  R0_4  1
    X0_13  R0_5  1
    X0_13  R0_6  1
    X0_13  R0_7  1
    X0_13  R0_8  1
    X0_13  R0_9  1
    X0_13  R0_10  1
    X0_13  R0_11  1
    X0_13  R0_12  1
    X0_13  R0_13  25
    X0_13  R0_14  1
    X0_13  R0_15  1
    X0_13  R0_16  1
    X0_13  R0_17  1
    X0_13  R0_18  1
    X0_13  R0_19  1
    X0_13  R0_20  1
    X0_13  R0_21  1
    X0_13  R0_22  1
    X0_13  R0_23  1
    X0_14  R0_0  1
    X0_14  R0_1  1
    X0_14  R0_2  1
    X0_14  R0_3  1
    X0_14  R0_4  1
    X0_14  R0_5  1
    X0_14  R0_6  1
    X0_14  R0_7  1
    X0_14  R0_8  1
    X0_14  R0_9  1
    X0_14  R0_10  1
    X0_14  R0_11  1
    X0_14  R0_12  1
    X0_14  R0_13  1
    X0_14  R0_14  25
    X0_14  R0_15  1
    X0_14  R0_16  1
    X0_14  R0_17  1
    X0_14  R0_18  1
    X0_14  R0_19  1
    X0_14  R0_20  1
    X0_14  R0_21  1
    X0_14  R0_22  1
    X0_14  R0_23  1
    X0_15  R0_0  1
    X0_15  R0_1  1
    X0_15  R0_2  1
    X0_15  R0_3  1
    X0_15  R0_4  1
    X0_15  R0_5  1
    X0_15  R0_6  1
    X0_15  R0_7  1
    X0_15  R0_8  1
    X0_15  R0_9  1
    X0_15  R0_10  1
    X0_15  R0_11  1
    X0_15  R0_12  1
    X0_15  R0_13  1
    X0_15  R0_14  1
    X0_15  R0_15  25
    X0_15  R0_16  1
    X0_15  R0_17  1
    X0_15  R0_18  1
    X0_15  R0_19  1
    X0_15  R0_20  1
    X0_15  R0_21  1
    X0_15  R0_22  1
    X0_15  R0_23  1
    X0_16  R0_0  1
    X0_16  R0_1  1
    X0_16  R0_2  1
    X0_16  R0_3  1
    X0_16  R0_4  1
    X0_16  R0_5  1
    X0_16  R0_6  1
    X0_16  R0_7  1
    X0_16  R0_8  1
    X0_16  R0_9  1
    X0_16  R0_10  1
    X0_16  R0_11  1
    X0_16  R0_12  1
    X0_16  R0_13  1
    X0_16  R0_14  1
    X0_16  R0_15  1
    X0_16  R0_16  25
    X0_16  R0_17  1
    X0_16  R0_18  1
    X0_16  R0_19  1
    X0_16  R0_20  1
    X0_16  R0_21  1
    X0_16  R0_22  1
    X0_16  R0_23  1
    X0_17  R0_0  1
    X0_17  R0_1  1
    X0_17  R0_2  1
    X0_17  R0_3  1
    X0_17  R0_4  1
    X0_17  R0_5  1
    X0_17  R0_6  1
    X0_17  R0_7  1
    X0_17  R0_8  1
    X0_17  R0_9  1
    X0_17  R0_10  1
    X0_17  R0_11  1
    X0_17  R0_12  1
    X0_17  R0_13  1
    X0_17  R0_14  1
    X0_17  R0_15  1
    X0_17  R0_16  1
    X0_17  R0_17  25
    X0_17  R0_18  1
    X0_17  R0_19  1
    X0_17  R0_20  1
    X0_17  R0_21  1
    X0_17  R0_22  1
    X0_17  R0_23  1
    X0_18  R0_0  1
    X0_18  R0_1  1
    X0_18  R0_2  1
    X0_18  R0_3  1
    X0_18  R0_4  1
    X0_18  R0_5  1
    X0_18  R0_6  1
    X0_18  R0_7  1
    X0_18  R0_8  1
    X0_18  R0_9  1
    X0_18  R0_10  1
    X0_18  R0_11  1
    X0_18  R0_12  1
    X0_18  R0_13  1
    X0_18  R0_14  1
    X0_18  R0_15  1
    X0_18  R0_16  1
    X0_18  R0_17  1
    X0_18  R0_18  25
    X0_18  R0_19  1
    X0_18  R0_20  1
    X0_18  R0_21  1
    X0_18  R0_22  1
    X0_18  R0_23  1
    X0_19  R0_0  1
    X0_19  R0_1  1
    X0_19  R0_2  1
    X0_19  R0_3  1
    X0_19  R0_4  1
    X0_19  R0_5  1
    X0_19  R0_6  1
    X0_19  R0_7  1
    X0_19  R0_8  1
    X0_19  R0_9  1
    X0_19  R0_10  1
    X0_19  R0_11  1
    X0_19  R0_12  1
    X0_19  R0_13  1
    X0_19  R0_14  1
    X0_19  R0_15  1
    X0_19  R0_16  1
    X0_19  R0_17  1
    X0_19  R0_18  1
    X0_19  R0_19  25
    X0_19  R0_20  1
    X0_19  R0_21  1
    X0_19  R0_22  1
    X0_19  R0_23  1
    X0_20  R0_0  1
    X0_20  R0_1  1
    X0_20  R0_2  1
    X0_20  R0_3  1
    X0_20  R0_4  1
    X0_20  R0_5  1
    X0_20  R0_6  1
    X0_20  R0_7  1
    X0_20  R0_8  1
    X0_20  R0_9  1
    X0_20  R0_10  1
    X0_20  R0_11  1
    X0_20  R0_12  1
    X0_20  R0_13  1
    X0_20  R0_14  1
    X0_20  R0_15  1
    X0_20  R0_16  1
    X0_20  R0_17  1
    X0_20  R0_18  1
    X0_20  R0_19  1
    X0_20  R0_20  25
    X0_20  R0_21  1
    X0_20  R0_22  1
    X0_20  R0_23  1
    X0_21  R0_0  1
    X0_21  R0_1  1
    X0_21  R0_2  1
    X0_21  R0_3  1
    X0_21  R0_4  1
    X0_21  R0_5  1
    X0_21  R0_6  1
    X0_21  R0_7  1
    X0_21  R0_8  1
    X0_21  R0_9  1
    X0_21  R0_10  1
    X0_21  R0_11  1
    X0_21  R0_12  1
    X0_21  R0_13  1
    X0_21  R0_14  1
    X0_21  R0_15  1
    X0_21  R0_16  1
    X0_21  R0_17  1
    X0_21  R0_18  1
    X0_21  R0_19  1
    X0_21  R0_20  1
    X0_21  R0_21  25
    X0_21  R0_22  1
    X0_21  R0_23  1
    X0_22  R0_0  1
    X0_22  R0_1  1
    X0_22  R0_2  1
    X0_22  R0_3  1
    X0_22  R0_4  1
    X0_22  R0_5  1
    X0_22  R0_6  1
    X0_22  R0_7  1
    X0_22  R0_8  1
    X0_22  R0_9  1
    X0_22  R0_10  1
    X0_22  R0_11  1
    X0_22  R0_12  1
    X0_22  R0_13  1
    X0_22  R0_14  1
    X0_22  R0_15  1
    X0_22  R0_16  1
    X0_22  R0_17  1
    X0_22  R0_18  1
    X0_22  R0_19  1
    X0_22  R0_20  1
    X0_22  R0_21  1
    X0_22  R0_22  25
    X0_22  R0_23  1
    X0_23  R0_0  1
    X0_23  R0_1  1
    X0_23  R0_2  1
    X0_23  R0_3  1
    X0_23  R0_4  1
    X0_23  R0_5  1
    X0_23  R0_6  1
    X0_23  R0_7  1
    X0_23  R0_8  1
    X0_23  R0_9  1
    X0_23  R0_10  1
    X0_23  R0_11  1
    X0_23  R0_12  1
    X0_23  R0_13  1
    X0_23  R0_14  1
    X0_23  R0_15  1
    X0_23  R0_16  1
    X0_23  R0_17  1
    X0_23  R0_18  1
    X0_23  R0_19  1
    X0_23  R0_20  1
    X0_23  R0_21  1
    X0_23  R0_22  1
    X0_23  R0_23  25
    X1_0  R1_0  25
    X1_0  R1_1  1
    X1_0  R1_2  1
    X1_0  R1_3  1
    X1_0  R1_4  1
    X1_0  R1_5  1
    X1_0  R1_6  1
    X1_0  R1_7  1
    X1_0  R1_8  1
    X1_0  R1_9  1
    X1_0  R1_10  1
    X1_0  R1_11  1
    X1_0  R1_12  1
    X1_0  R1_13  1
    X1_0  R1_14  1
    X1_0  R1_15  1
    X1_0  R1_16  1
    X1_0  R1_17  1
    X1_0  R1_18  1
    X1_0  R1_19  1
    X1_0  R1_20  1
    X1_0  R1_21  1
    X1_0  R1_22  1
    X1_0  R1_23  1
    X1_1  R1_0  1
    X1_1  R1_1  25
    X1_1  R1_2  1
    X1_1  R1_3  1
    X1_1  R1_4  1
    X1_1  R1_5  1
    X1_1  R1_6  1
    X1_1  R1_7  1
    X1_1  R1_8  1
    X1_1  R1_9  1
    X1_1  R1_10  1
    X1_1  R1_11  1
    X1_1  R1_12  1
    X1_1  R1_13  1
    X1_1  R1_14  1
    X1_1  R1_15  1
    X1_1  R1_16  1
    X1_1  R1_17  1
    X1_1  R1_18  1
    X1_1  R1_19  1
    X1_1  R1_20  1
    X1_1  R1_21  1
    X1_1  R1_22  1
    X1_1  R1_23  1
    X1_2  R1_0  1
    X1_2  R1_1  1
    X1_2  R1_2  25
    X1_2  R1_3  1
    X1_2  R1_4  1
    X1_2  R1_5  1
    X1_2  R1_6  1
    X1_2  R1_7  1
    X1_2  R1_8  1
    X1_2  R1_9  1
    X1_2  R1_10  1
    X1_2  R1_11  1
    X1_2  R1_12  1
    X1_2  R1_13  1
    X1_2  R1_14  1
    X1_2  R1_15  1
    X1_2  R1_16  1
    X1_2  R1_17  1
    X1_2  R1_18  1
    X1_2  R1_19  1
    X1_2  R1_20  1
    X1_2  R1_21  1
    X1_2  R1_22  1
    X1_2  R1_23  1
    X1_3  R1_0  1
    X1_3  R1_1  1
    X1_3  R1_2  1
    X1_3  R1_3  25
    X1_3  R1_4  1
    X1_3  R1_5  1
    X1_3  R1_6  1
    X1_3  R1_7  1
    X1_3  R1_8  1
    X1_3  R1_9  1
    X1_3  R1_10  1
    X1_3  R1_11  1
    X1_3  R1_12  1
    X1_3  R1_13  1
    X1_3  R1_14  1
    X1_3  R1_15  1
    X1_3  R1_16  1
    X1_3  R1_17  1
    X1_3  R1_18  1
    X1_3  R1_19  1
    X1_3  R1_20  1
    X1_3  R1_21  1
    X1_3  R1_22  1
    X1_3  R1_23  1
    X1_4  R1_0  1
    X1_4  R1_1  1
    X1_4  R1_2  1
    X1_4  R1_3  1
    X1_4  R1_4  25
    X1_4  R1_5  1
    X1_4  R1_6  1
    X1_4  R1_7  1
    X1_4  R1_8  1
    X1_4  R1_9  1
    X1_4  R1_10  1
    X1_4  R1_11  1
    X1_4  R1_12  1
    X1_4  R1_13  1
    X1_4  R1_14  1
    X1_4  R1_15  1
    X1_4  R1_16  1
    X1_4  R1_17  1
    X1_4  R1_18  1
    X1_4  R1_19  1
    X1_4  R1_20  1
    X1_4  R1_21  1
    X1_4  R1_22  1
    X1_4  R1_23  1
    X1_5  R1_0  1
    X1_5  R1_1  1
    X1_5  R1_2  1
    X1_5  R1_3  1
    X1_5  R1_4  1
    X1_5  R1_5  25
    X1_5  R1_6  1
    X1_5  R1_7  1
    X1_5  R1_8  1
    X1_5  R1_9  1
    X1_5  R1_10  1
    X1_5  R1_11  1
    X1_5  R1_12  1
    X1_5  R1_13  1
    X1_5  R1_14  1
    X1_5  R1_15  1
    X1_5  R1_16  1
    X1_5  R1_17  1
    X1_5  R1_18  1
    X1_5  R1_19  1
    X1_5  R1_20  1
    X1_5  R1_21  1
    X1_5  R1_22  1
    X1_5  R1_23  1
    X1_6  R1_0  1
    X1_6  R1_1  1
    X1_6  R1_2  1
    X1_6  R1_3  1
    X1_6  R1_4  1
    X1_6  R1_5  1
    X1_6  R1_6  25
    X1_6  R1_7  1
    X1_6  R1_8  1
    X1_6  R1_9  1
    X1_6  R1_10  1
    X1_6  R1_11  1
    X1_6  R1_12  1
    X1_6  R1_13  1
    X1_6  R1_14  1
    X1_6  R1_15  1
    X1_6  R1_16  1
    X1_6  R1_17  1
    X1_6  R1_18  1
    X1_6  R1_19  1
    X1_6  R1_20  1
    X1_6  R1_21  1
    X1_6  R1_22  1
    X1_6  R1_23  1
    X1_7  R1_0  1
    X1_7  R1_1  1
    X1_7  R1_2  1
    X1_7  R1_3  1
    X1_7  R1_4  1
    X1_7  R1_5  1
    X1_7  R1_6  1
    X1_7  R1_7  25
    X1_7  R1_8  1
    X1_7  R1_9  1
    X1_7  R1_10  1
    X1_7  R1_11  1
    X1_7  R1_12  1
    X1_7  R1_13  1
    X1_7  R1_14  1
    X1_7  R1_15  1
    X1_7  R1_16  1
    X1_7  R1_17  1
    X1_7  R1_18  1
    X1_7  R1_19  1
    X1_7  R1_20  1
    X1_7  R1_21  1
    X1_7  R1_22  1
    X1_7  R1_23  1
    X1_8  R1_0  1
    X1_8  R1_1  1
    X1_8  R1_2  1
    X1_8  R1_3  1
    X1_8  R1_4  1
    X1_8  R1_5  1
    X1_8  R1_6  1
    X1_8  R1_7  1
    X1_8  R1_8  25
    X1_8  R1_9  1
    X1_8  R1_10  1
    X1_8  R1_11  1
    X1_8  R1_12  1
    X1_8  R1_13  1
    X1_8  R1_14  1
    X1_8  R1_15  1
    X1_8  R1_16  1
    X1_8  R1_17  1
    X1_8  R1_18  1
    X1_8  R1_19  1
    X1_8  R1_20  1
    X1_8  R1_21  1
    X1_8  R1_22  1
    X1_8  R1_23  1
    X1_9  R1_0  1
    X1_9  R1_1  1
    X1_9  R1_2  1
    X1_9  R1_3  1
    X1_9  R1_4  1
    X1_9  R1_5  1
    X1_9  R1_6  1
    X1_9  R1_7  1
    X1_9  R1_8  1
    X1_9  R1_9  25
    X1_9  R1_10  1
    X1_9  R1_11  1
    X1_9  R1_12  1
    X1_9  R1_13  1
    X1_9  R1_14  1
    X1_9  R1_15  1
    X1_9  R1_16  1
    X1_9  R1_17  1
    X1_9  R1_18  1
    X1_9  R1_19  1
    X1_9  R1_20  1
    X1_9  R1_21  1
    X1_9  R1_22  1
    X1_9  R1_23  1
    X1_10  R1_0  1
    X1_10  R1_1  1
    X1_10  R1_2  1
    X1_10  R1_3  1
    X1_10  R1_4  1
    X1_10  R1_5  1
    X1_10  R1_6  1
    X1_10  R1_7  1
    X1_10  R1_8  1
    X1_10  R1_9  1
    X1_10  R1_10  25
    X1_10  R1_11  1
    X1_10  R1_12  1
    X1_10  R1_13  1
    X1_10  R1_14  1
    X1_10  R1_15  1
    X1_10  R1_16  1
    X1_10  R1_17  1
    X1_10  R1_18  1
    X1_10  R1_19  1
    X1_10  R1_20  1
    X1_10  R1_21  1
    X1_10  R1_22  1
    X1_10  R1_23  1
    X1_11  R1_0  1
    X1_11  R1_1  1
    X1_11  R1_2  1
    X1_11  R1_3  1
    X1_11  R1_4  1
    X1_11  R1_5  1
    X1_11  R1_6  1
    X1_11  R1_7  1
    X1_11  R1_8  1
    X1_11  R1_9  1
    X1_11  R1_10  1
    X1_11  R1_11  25
    X1_11  R1_12  1
    X1_11  R1_13  1
    X1_11  R1_14  1
    X1_11  R1_15  1
    X1_11  R1_16  1
    X1_11  R1_17  1
    X1_11  R1_18  1
    X1_11  R1_19  1
    X1_11  R1_20  1
    X1_11  R1_21  1
    X1_11  R1_22  1
    X1_11  R1_23  1
    X1_12  R1_0  1
    X1_12  R1_1  1
    X1_12  R1_2  1
    X1_12  R1_3  1
    X1_12  R1_4  1
    X1_12  R1_5  1
    X1_12  R1_6  1
    X1_12  R1_7  1
    X1_12  R1_8  1
    X1_12  R1_9  1
    X1_12  R1_10  1
    X1_12  R1_11  1
    X1_12  R1_12  25
    X1_12  R1_13  1
    X1_12  R1_14  1
    X1_12  R1_15  1
    X1_12  R1_16  1
    X1_12  R1_17  1
    X1_12  R1_18  1
    X1_12  R1_19  1
    X1_12  R1_20  1
    X1_12  R1_21  1
    X1_12  R1_22  1
    X1_12  R1_23  1
    X1_13  R1_0  1
    X1_13  R1_1  1
    X1_13  R1_2  1
    X1_13  R1_3  1
    X1_13  R1_4  1
    X1_13  R1_5  1
    X1_13  R1_6  1
    X1_13  R1_7  1
    X1_13  R1_8  1
    X1_13  R1_9  1
    X1_13  R1_10  1
    X1_13  R1_11  1
    X1_13  R1_12  1
    X1_13  R1_13  25
    X1_13  R1_14  1
    X1_13  R1_15  1
    X1_13  R1_16  1
    X1_13  R1_17  1
    X1_13  R1_18  1
    X1_13  R1_19  1
    X1_13  R1_20  1
    X1_13  R1_21  1
    X1_13  R1_22  1
    X1_13  R1_23  1
    X1_14  R1_0  1
    X1_14  R1_1  1
    X1_14  R1_2  1
    X1_14  R1_3  1
    X1_14  R1_4  1
    X1_14  R1_5  1
    X1_14  R1_6  1
    X1_14  R1_7  1
    X1_14  R1_8  1
    X1_14  R1_9  1
    X1_14  R1_10  1
    X1_14  R1_11  1
    X1_14  R1_12  1
    X1_14  R1_13  1
    X1_14  R1_14  25
    X1_14  R1_15  1
    X1_14  R1_16  1
    X1_14  R1_17  1
    X1_14  R1_18  1
    X1_14  R1_19  1
    X1_14  R1_20  1
    X1_14  R1_21  1
    X1_14  R1_22  1
    X1_14  R1_23  1
    X1_15  R1_0  1
    X1_15  R1_1  1
    X1_15  R1_2  1
    X1_15  R1_3  1
    X1_15  R1_4  1
    X1_15  R1_5  1
    X1_15  R1_6  1
    X1_15  R1_7  1
    X1_15  R1_8  1
    X1_15  R1_9  1
    X1_15  R1_10  1
    X1_15  R1_11  1
    X1_15  R1_12  1
    X1_15  R1_13  1
    X1_15  R1_14  1
    X1_15  R1_15  25
    X1_15  R1_16  1
    X1_15  R1_17  1
    X1_15  R1_18  1
    X1_15  R1_19  1
    X1_15  R1_20  1
    X1_15  R1_21  1
    X1_15  R1_22  1
    X1_15  R1_23  1
    X1_16  R1_0  1
    X1_16  R1_1  1
    X1_16  R1_2  1
    X1_16  R1_3  1
    X1_16  R1_4  1
    X1_16  R1_5  1
    X1_16  R1_6  1
    X1_16  R1_7  1
    X1_16  R1_8  1
    X1_16  R1_9  1
    X1_16  R1_10  1
    X1_16  R1_11  1
    X1_16  R1_12  1
    X1_16  R1_13  1
    X1_16  R1_14  1
    X1_16  R1_15  1
    X1_16  R1_16  25
    X1_16  R1_17  1
    X1_16  R1_18  1
    X1_16  R1_19  1
    X1_16  R1_20  1
    X1_16  R1_21  1
    X1_16  R1_22  1
    X1_16  R1_23  1
    X1_17  R1_0  1
    X1_17  R1_1  1
    X1_17  R1_2  1
    X1_17  R1_3  1
    X1_17  R1_4  1
    X1_17  R1_5  1
    X1_17  R1_6  1
    X1_17  R1_7  1
    X1_17  R1_8  1
    X1_17  R1_9  1
    X1_17  R1_10  1
    X1_17  R1_11  1
    X1_17  R1_12  1
    X1_17  R1_13  1
    X1_17  R1_14  1
    X1_17  R1_15  1
    X1_17  R1_16  1
    X1_17  R1_17  25
    X1_17  R1_18  1
    X1_17  R1_19  1
    X1_17  R1_20  1
    X1_17  R1_21  1
    X1_17  R1_22  1
    X1_17  R1_23  1
    X1_18  R1_0  1
    X1_18  R1_1  1
    X1_18  R1_2  1
    X1_18  R1_3  1
    X1_18  R1_4  1
    X1_18  R1_5  1
    X1_18  R1_6  1
    X1_18  R1_7  1
    X1_18  R1_8  1
    X1_18  R1_9  1
    X1_18  R1_10  1
    X1_18  R1_11  1
    X1_18  R1_12  1
    X1_18  R1_13  1
    X1_18  R1_14  1
    X1_18  R1_15  1
    X1_18  R1_16  1
    X1_18  R1_17  1
    X1_18  R1_18  25
    X1_18  R1_19  1
    X1_18  R1_20  1
    X1_18  R1_21  1
    X1_18  R1_22  1
    X1_18  R1_23  1
    X1_19  R1_0  1
    X1_19  R1_1  1
    X1_19  R1_2  1
    X1_19  R1_3  1
    X1_19  R1_4  1
    X1_19  R1_5  1
    X1_19  R1_6  1
    X1_19  R1_7  1
    X1_19  R1_8  1
    X1_19  R1_9  1
    X1_19  R1_10  1
    X1_19  R1_11  1
    X1_19  R1_12  1
    X1_19  R1_13  1
    X1_19  R1_14  1
    X1_19  R1_15  1
    X1_19  R1_16  1
    X1_19  R1_17  1
    X1_19  R1_18  1
    X1_19  R1_19  25
    X1_19  R1_20  1
    X1_19  R1_21  1
    X1_19  R1_22  1
    X1_19  R1_23  1
    X1_20  R1_0  1
    X1_20  R1_1  1
    X1_20  R1_2  1
    X1_20  R1_3  1
    X1_20  R1_4  1
    X1_20  R1_5  1
    X1_20  R1_6  1
    X1_20  R1_7  1
    X1_20  R1_8  1
    X1_20  R1_9  1
    X1_20  R1_10  1
    X1_20  R1_11  1
    X1_20  R1_12  1
    X1_20  R1_13  1
    X1_20  R1_14  1
    X1_20  R1_15  1
    X1_20  R1_16  1
    X1_20  R1_17  1
    X1_20  R1_18  1
    X1_20  R1_19  1
    X1_20  R1_20  25
    X1_20  R1_21  1
    X1_20  R1_22  1
    X1_20  R1_23  1
    X1_21  R1_0  1
    X1_21  R1_1  1
    X1_21  R1_2  1
    X1_21  R1_3  1
    X1_21  R1_4  1
    X1_21  R1_5  1
    X1_21  R1_6  1
    X1_21  R1_7  1
    X1_21  R1_8  1
    X1_21  R1_9  1
    X1_21  R1_10  1
    X1_21  R1_11  1
    X1_21  R1_12  1
    X1_21  R1_13  1
    X1_21  R1_14  1
    X1_21  R1_15  1
    X1_21  R1_16  1
    X1_21  R1_17  1
    X1_21  R1_18  1
    X1_21  R1_19  1
    X1_21  R1_20  1
    X1_21  R1_21  25
    X1_21  R1_22  1
    X1_21  R1_23  1
    X1_22  R1_0  1
    X1_22  R1_1  1
    X1_22  R1_2  1
    X1_22  R1_3  1
    X1_22  R1_4  1
    X1_22  R1_5  1
    X1_22  R1_6  1
    X1_22  R1_7  1
    X1_22  R1_8  1
    X1_22  R1_9  1
    X1_22  R1_10  1
    X1_22  R1_11  1
    X1_22  R1_12  1
    X1_22  R1_13  1
    X1_22  R1_14  1
    X1_22  R1_15  1
    X1_22  R1_16  1
    X1_22  R1_17  1
    X1_22  R1_18  1
    X1_22  R1_19  1
    X1_22  R1_20  1
    X1_22  R1_21  1
    X1_22  R1_22  25
    X1_22  R1_23  1
    X1_23  R1_0  1
    X1_23  R1_1  1
    X1_23  R1_2  1
    X1_23  R1_3  1
    X1_23  R1_4  1
    X1_23  R1_5  1
    X1_23  R1_6  1
    X1_23  R1_7  1
    X1_23  R1_8  1
    X1_23  R1_9  1
    X1_23  R1_10  1
    X1_23  R1_11  1
    X1_23  R1_12  1
    X1_23  R1_13  1
    X1_23  R1_14  1
    X1_23  R1_15  1
    X1_23  R1_16  1
    X1_23  R1_17  1
    X1_23  R1_18  1
    X1_23  R1_19  1
    X1_23  R1_20  1
    X1_23  R1_21  1
    X1_23  R1_22  1
    X1_23  R1_23  25
    X2_0  R2_0  25
    X2_0  R2_1  1
    X2_0  R2_2  1
    X2_0  R2_3  1
    X2_0  R2_4  1
    X2_0  R2_5  1
    X2_0  R2_6  1
    X2_0  R2_7  1
    X2_0  R2_8  1
    X2_0  R2_9  1
    X2_0  R2_10  1
    X2_0  R2_11  1
    X2_0  R2_12  1
    X2_0  R2_13  1
    X2_0  R2_14  1
    X2_0  R2_15  1
    X2_0  R2_16  1
    X2_0  R2_17  1
    X2_0  R2_18  1
    X2_0  R2_19  1
    X2_0  R2_20  1
    X2_0  R2_21  1
    X2_0  R2_22  1
    X2_0  R2_23  1
    X2_1  R2_0  1
    X2_1  R2_1  25
    X2_1  R2_2  1
    X2_1  R2_3  1
    X2_1  R2_4  1
    X2_1  R2_5  1
    X2_1  R2_6  1
    X2_1  R2_7  1
    X2_1  R2_8  1
    X2_1  R2_9  1
    X2_1  R2_10  1
    X2_1  R2_11  1
    X2_1  R2_12  1
    X2_1  R2_13  1
    X2_1  R2_14  1
    X2_1  R2_15  1
    X2_1  R2_16  1
    X2_1  R2_17  1
    X2_1  R2_18  1
    X2_1  R2_19  1
    X2_1  R2_20  1
    X2_1  R2_21  1
    X2_1  R2_22  1
    X2_1  R2_23  1
    X2_2  R2_0  1
    X2_2  R2_1  1
    X2_2  R2_2  25
    X2_2  R2_3  1
    X2_2  R2_4  1
    X2_2  R2_5  1
    X2_2  R2_6  1
    X2_2  R2_7  1
    X2_2  R2_8  1
    X2_2  R2_9  1
    X2_2  R2_10  1
    X2_2  R2_11  1
    X2_2  R2_12  1
    X2_2  R2_13  1
    X2_2  R2_14  1
    X2_2  R2_15  1
    X2_2  R2_16  1
    X2_2  R2_17  1
    X2_2  R2_18  1
    X2_2  R2_19  1
    X2_2  R2_20  1
    X2_2  R2_21  1
    X2_2  R2_22  1
    X2_2  R2_23  1
    X2_3  R2_0  1
    X2_3  R2_1  1
    X2_3  R2_2  1
    X2_3  R2_3  25
    X2_3  R2_4  1
    X2_3  R2_5  1
    X2_3  R2_6  1
    X2_3  R2_7  1
    X2_3  R2_8  1
    X2_3  R2_9  1
    X2_3  R2_10  1
    X2_3  R2_11  1
    X2_3  R2_12  1
    X2_3  R2_13  1
    X2_3  R2_14  1
    X2_3  R2_15  1
    X2_3  R2_16  1
    X2_3  R2_17  1
    X2_3  R2_18  1
    X2_3  R2_19  1
    X2_3  R2_20  1
    X2_3  R2_21  1
    X2_3  R2_22  1
    X2_3  R2_23  1
    X2_4  R2_0  1
    X2_4  R2_1  1
    X2_4  R2_2  1
    X2_4  R2_3  1
    X2_4  R2_4  25
    X2_4  R2_5  1
    X2_4  R2_6  1
    X2_4  R2_7  1
    X2_4  R2_8  1
    X2_4  R2_9  1
    X2_4  R2_10  1
    X2_4  R2_11  1
    X2_4  R2_12  1
    X2_4  R2_13  1
    X2_4  R2_14  1
    X2_4  R2_15  1
    X2_4  R2_16  1
    X2_4  R2_17  1
    X2_4  R2_18  1
    X2_4  R2_19  1
    X2_4  R2_20  1
    X2_4  R2_21  1
    X2_4  R2_22  1
    X2_4  R2_23  1
    X2_5  R2_0  1
    X2_5  R2_1  1
    X2_5  R2_2  1
    X2_5  R2_3  1
    X2_5  R2_4  1
    X2_5  R2_5  25
    X2_5  R2_6  1
    X2_5  R2_7  1
    X2_5  R2_8  1
    X2_5  R2_9  1
    X2_5  R2_10  1
    X2_5  R2_11  1
    X2_5  R2_12  1
    X2_5  R2_13  1
    X2_5  R2_14  1
    X2_5  R2_15  1
    X2_5  R2_16  1
    X2_5  R2_17  1
    X2_5  R2_18  1
    X2_5  R2_19  1
    X2_5  R2_20  1
    X2_5  R2_21  1
    X2_5  R2_22  1
    X2_5  R2_23  1
    X2_6  R2_0  1
    X2_6  R2_1  1
    X2_6  R2_2  1
    X2_6  R2_3  1
    X2_6  R2_4  1
    X2_6  R2_5  1
    X2_6  R2_6  25
    X2_6  R2_7  1
    X2_6  R2_8  1
    X2_6  R2_9  1
    X2_6  R2_10  1
    X2_6  R2_11  1
    X2_6  R2_12  1
    X2_6  R2_13  1
    X2_6  R2_14  1
    X2_6  R2_15  1
    X2_6  R2_16  1
    X2_6  R2_17  1
    X2_6  R2_18  1
    X2_6  R2_19  1
    X2_6  R2_20  1
    X2_6  R2_21  1
    X2_6  R2_22  1
    X2_6  R2_23  1
    X2_7  R2_0  1
    X2_7  R2_1  1
    X2_7  R2_2  1
    X2_7  R2_3  1
    X2_7  R2_4  1
    X2_7  R2_5  1
    X2_7  R2_6  1
    X2_7  R2_7  25
    X2_7  R2_8  1
    X2_7  R2_9  1
    X2_7  R2_10  1
    X2_7  R2_11  1
    X2_7  R2_12  1
    X2_7  R2_13  1
    X2_7  R2_14  1
    X2_7  R2_15  1
    X2_7  R2_16  1
    X2_7  R2_17  1
    X2_7  R2_18  1
    X2_7  R2_19  1
    X2_7  R2_20  1
    X2_7  R2_21  1
    X2_7  R2_22  1
    X2_7  R2_23  1
    X2_8  R2_0  1
    X2_8  R2_1  1
    X2_8  R2_2  1
    X2_8  R2_3  1
    X2_8  R2_4  1
    X2_8  R2_5  1
    X2_8  R2_6  1
    X2_8  R2_7  1
    X2_8  R2_8  25
    X2_8  R2_9  1
    X2_8  R2_10  1
    X2_8  R2_11  1
    X2_8  R2_12  1
    X2_8  R2_13  1
    X2_8  R2_14  1
    X2_8  R2_15  1
    X2_8  R2_16  1
    X2_8  R2_17  1
    X2_8  R2_18  1
    X2_8  R2_19  1
    X2_8  R2_20  1
    X2_8  R2_21  1
    X2_8  R2_22  1
    X2_8  R2_23  1
    X2_9  R2_0  1
    X2_9  R2_1  1
    X2_9  R2_2  1
    X2_9  R2_3  1
    X2_9  R2_4  1
    X2_9  R2_5  1
    X2_9  R2_6  1
    X2_9  R2_7  1
    X2_9  R2_8  1
    X2_9  R2_9  25
    X2_9  R2_10  1
    X2_9  R2_11  1
    X2_9  R2_12  1
    X2_9  R2_13  1
    X2_9  R2_14  1
    X2_9  R2_15  1
    X2_9  R2_16  1
    X2_9  R2_17  1
    X2_9  R2_18  1
    X2_9  R2_19  1
    X2_9  R2_20  1
    X2_9  R2_21  1
    X2_9  R2_22  1
    X2_9  R2_23  1
    X2_10  R2_0  1
    X2_10  R2_1  1
    X2_10  R2_2  1
    X2_10  R2_3  1
    X2_10  R2_4  1
    X2_10  R2_5  1
    X2_10  R2_6  1
    X2_10  R2_7  1
    X2_10  R2_8  1
    X2_10  R2_9  1
    X2_10  R2_10  25
    X2_10  R2_11  1
    X2_10  R2_12  1
    X2_10  R2_13  1
    X2_10  R2_14  1
    X2_10  R2_15  1
    X2_10  R2_16  1
    X2_10  R2_17  1
    X2_10  R2_18  1
    X2_10  R2_19  1
    X2_10  R2_20  1
    X2_10  R2_21  1
    X2_10  R2_22  1
    X2_10  R2_23  1
    X2_11  R2_0  1
    X2_11  R2_1  1
    X2_11  R2_2  1
    X2_11  R2_3  1
    X2_11  R2_4  1
    X2_11  R2_5  1
    X2_11  R2_6  1
    X2_11  R2_7  1
    X2_11  R2_8  1
    X2_11  R2_9  1
    X2_11  R2_10  1
    X2_11  R2_11  25
    X2_11  R2_12  1
    X2_11  R2_13  1
    X2_11  R2_14  1
    X2_11  R2_15  1
    X2_11  R2_16  1
    X2_11  R2_17  1
    X2_11  R2_18  1
    X2_11  R2_19  1
    X2_11  R2_20  1
    X2_11  R2_21  1
    X2_11  R2_22  1
    X2_11  R2_23  1
    X2_12  R2_0  1
    X2_12  R2_1  1
    X2_12  R2_2  1
    X2_12  R2_3  1
    X2_12  R2_4  1
    X2_12  R2_5  1
    X2_12  R2_6  1
    X2_12  R2_7  1
    X2_12  R2_8  1
    X2_12  R2_9  1
    X2_12  R2_10  1
    X2_12  R2_11  1
    X2_12  R2_12  25
    X2_12  R2_13  1
    X2_12  R2_14  1
    X2_12  R2_15  1
    X2_12  R2_16  1
    X2_12  R2_17  1
    X2_12  R2_18  1
    X2_12  R2_19  1
    X2_12  R2_20  1
    X2_12  R2_21  1
    X2_12  R2_22  1
    X2_12  R2_23  1
    X2_13  R2_0  1
    X2_13  R2_1  1
    X2_13  R2_2  1
    X2_13  R2_3  1
    X2_13  R2_4  1
    X2_13  R2_5  1
    X2_13  R2_6  1
    X2_13  R2_7  1
    X2_13  R2_8  1
    X2_13  R2_9  1
    X2_13  R2_10  1
    X2_13  R2_11  1
    X2_13  R2_12  1
    X2_13  R2_13  25
    X2_13  R2_14  1
    X2_13  R2_15  1
    X2_13  R2_16  1
    X2_13  R2_17  1
    X2_13  R2_18  1
    X2_13  R2_19  1
    X2_13  R2_20  1
    X2_13  R2_21  1
    X2_13  R2_22  1
    X2_13  R2_23  1
    X2_14  R2_0  1
    X2_14  R2_1  1
    X2_14  R2_2  1
    X2_14  R2_3  1
    X2_14  R2_4  1
    X2_14  R2_5  1
    X2_14  R2_6  1
    X2_14  R2_7  1
    X2_14  R2_8  1
    X2_14  R2_9  1
    X2_14  R2_10  1
    X2_14  R2_11  1
    X2_14  R2_12  1
    X2_14  R2_13  1
    X2_14  R2_14  25
    X2_14  R2_15  1
    X2_14  R2_16  1
    X2_14  R2_17  1
    X2_14  R2_18  1
    X2_14  R2_19  1
    X2_14  R2_20  1
    X2_14  R2_21  1
    X2_14  R2_22  1
    X2_14  R2_23  1
    X2_15  R2_0  1
    X2_15  R2_1  1
    X2_15  R2_2  1
    X2_15  R2_3  1
    X2_15  R2_4  1
    X2_15  R2_5  1
    X2_15  R2_6  1
    X2_15  R2_7  1
    X2_15  R2_8  1
    X2_15  R2_9  1
    X2_15  R2_10  1
    X2_15  R2_11  1
    X2_15  R2_12  1
    X2_15  R2_13  1
    X2_15  R2_14  1
    X2_15  R2_15  25
    X2_15  R2_16  1
    X2_15  R2_17  1
    X2_15  R2_18  1
    X2_15  R2_19  1
    X2_15  R2_20  1
    X2_15  R2_21  1
    X2_15  R2_22  1
    X2_15  R2_23  1
    X2_16  R2_0  1
    X2_16  R2_1  1
    X2_16  R2_2  1
    X2_16  R2_3  1
    X2_16  R2_4  1
    X2_16  R2_5  1
    X2_16  R2_6  1
    X2_16  R2_7  1
    X2_16  R2_8  1
    X2_16  R2_9  1
    X2_16  R2_10  1
    X2_16  R2_11  1
    X2_16  R2_12  1
    X2_16  R2_13  1
    X2_16  R2_14  1
    X2_16  R2_15  1
    X2_16  R2_16  25
    X2_16  R2_17  1
    X2_16  R2_18  1
    X2_16  R2_19  1
    X2_16  R2_20  1
    X2_16  R2_21  1
    X2_16  R2_22  1
    X2_16  R2_23  1
    X2_17  R2_0  1
    X2_17  R2_1  1
    X2_17  R2_2  1
    X2_17  R2_3  1
    X2_17  R2_4  1
    X2_17  R2_5  1
    X2_17  R2_6  1
    X2_17  R2_7  1
    X2_17  R2_8  1
    X2_17  R2_9  1
    X2_17  R2_10  1
    X2_17  R2_11  1
    X2_17  R2_12  1
    X2_17  R2_13  1
    X2_17  R2_14  1
    X2_17  R2_15  1
    X2_17  R2_16  1
    X2_17  R2_17  25
    X2_17  R2_18  1
    X2_17  R2_19  1
    X2_17  R2_20  1
    X2_17  R2_21  1
    X2_17  R2_22  1
    X2_17  R2_23  1
    X2_18  R2_0  1
    X2_18  R2_1  1
    X2_18  R2_2  1
    X2_18  R2_3  1
    X2_18  R2_4  1
    X2_18  R2_5  1
    X2_18  R2_6  1
    X2_18  R2_7  1
    X2_18  R2_8  1
    X2_18  R2_9  1
    X2_18  R2_10  1
    X2_18  R2_11  1
    X2_18  R2_12  1
    X2_18  R2_13  1
    X2_18  R2_14  1
    X2_18  R2_15  1
    X2_18  R2_16  1
    X2_18  R2_17  1
    X2_18  R2_18  25
    X2_18  R2_19  1
    X2_18  R2_20  1
    X2_18  R2_21  1
    X2_18  R2_22  1
    X2_18  R2_23  1
    X2_19  R2_0  1
    X2_19  R2_1  1
    X2_19  R2_2  1
    X2_19  R2_3  1
    X2_19  R2_4  1
    X2_19  R2_5  1
    X2_19  R2_6  1
    X2_19  R2_7  1
    X2_19  R2_8  1
    X2_19  R2_9  1
    X2_19  R2_10  1
    X2_19  R2_11  1
    X2_19  R2_12  1
    X2_19  R2_13  1
    X2_19  R2_14  1
    X2_19  R2_15  1
    X2_19  R2_16  1
    X2_19  R2_17  1
    X2_19  R2_18  1
    X2_19  R2_19  25
    X2_19  R2_20  1
    X2_19  R2_21  1
    X2_19  R2_22  1
    X2_19  R2_23  1
    X2_20  R2_0  1
    X2_20  R2_1  1
    X2_20  R2_2  1
    X2_20  R2_3  1
    X2_20  R2_4  1
    X2_20  R2_5  1
    X2_20  R2_6  1
    X2_20  R2_7  1
    X2_20  R2_8  1
    X2_20  R2_9  1
    X2_20  R2_10  1
    X2_20  R2_11  1
    X2_20  R2_12  1
    X2_20  R2_13  1
    X2_20  R2_14  1
    X2_20  R2_15  1
    X2_20  R2_16  1
    X2_20  R2_17  1
    X2_20  R2_18  1
    X2_20  R2_19  1
    X2_20  R2_20  25
    X2_20  R2_21  1
    X2_20  R2_22  1
    X2_20  R2_23  1
    X2_21  R2_0  1
    X2_21  R2_1  1
    X2_21  R2_2  1
    X2_21  R2_3  1
    X2_21  R2_4  1
    X2_21  R2_5  1
    X2_21  R2_6  1
    X2_21  R2_7  1
    X2_21  R2_8  1
    X2_21  R2_9  1
    X2_21  R2_10  1
    X2_21  R2_11  1
    X2_21  R2_12  1
    X2_21  R2_13  1
    X2_21  R2_14  1
    X2_21  R2_15  1
    X2_21  R2_16  1
    X2_21  R2_17  1
    X2_21  R2_18  1
    X2_21  R2_19  1
    X2_21  R2_20  1
    X2_21  R2_21  25
    X2_21  R2_22  1
    X2_21  R2_23  1
    X2_22  R2_0  1
    X2_22  R2_1  1
    X2_22  R2_2  1
    X2_22  R2_3  1
    X2_22  R2_4  1
    X2_22  R2_5  1
    X2_22  R2_6  1
    X2_22  R2_7  1
    X2_22  R2_8  1
    X2_22  R2_9  1
    X2_22  R2_10  1
    X2_22  R2_11  1
    X2_22  R2_12  1
    X2_22  R2_13  1
    X2_22  R2_14  1
    X2_22  R2_15  1
    X2_22  R2_16  1
    X2_22  R2_17  1
    X2_22  R2_18  1
    X2_22  R2_19  1
    X2_22  R2_20  1
    X2_22  R2_21  1
    X2_22  R2_22  25
    X2_22  R2_23  1
    X2_23  R2_0  1
    X2_23  R2_1  1
    X2_23  R2_2  1
    X2_23  R2_3  1
    X2_23  R2_4  1
    X2_23  R2_5  1
    X2_23  R2_6  1
    X2_23  R2_7  1
    X2_23  R2_8  1
    X2_23  R2_9  1
    X2_23  R2_10  1
    X2_23  R2_11  1
    X2_23  R2_12  1
    X2_23  R2_13  1
    X2_23  R2_14  1
    X2_23  R2_15  1
    X2_23  R2_16  1
    X2_23  R2_17  1
    X2_23  R2_18  1
    X2_23  R2_19  1
    X2_23  R2_20  1
    X2_23  R2_21  1
    X2_23  R2_22  1
    X2_23  R2_23  25
    X3_0  R3_0  25
    X3_0  R3_1  1
    X3_0  R3_2  1
    X3_0  R3_3  1
    X3_0  R3_4  1
    X3_0  R3_5  1
    X3_0  R3_6  1
    X3_0  R3_7  1
    X3_0  R3_8  1
    X3_0  R3_9  1
    X3_0  R3_10  1
    X3_0  R3_11  1
    X3_0  R3_12  1
    X3_0  R3_13  1
    X3_0  R3_14  1
    X3_0  R3_15  1
    X3_0  R3_16  1
    X3_0  R3_17  1
    X3_0  R3_18  1
    X3_0  R3_19  1
    X3_0  R3_20  1
    X3_0  R3_21  1
    X3_0  R3_22  1
    X3_0  R3_23  1
    X3_1  R3_0  1
    X3_1  R3_1  25
    X3_1  R3_2  1
    X3_1  R3_3  1
    X3_1  R3_4  1
    X3_1  R3_5  1
    X3_1  R3_6  1
    X3_1  R3_7  1
    X3_1  R3_8  1
    X3_1  R3_9  1
    X3_1  R3_10  1
    X3_1  R3_11  1
    X3_1  R3_12  1
    X3_1  R3_13  1
    X3_1  R3_14  1
    X3_1  R3_15  1
    X3_1  R3_16  1
    X3_1  R3_17  1
    X3_1  R3_18  1
    X3_1  R3_19  1
    X3_1  R3_20  1
    X3_1  R3_21  1
    X3_1  R3_22  1
    X3_1  R3_23  1
    X3_2  R3_0  1
    X3_2  R3_1  1
    X3_2  R3_2  25
    X3_2  R3_3  1
    X3_2  R3_4  1
    X3_2  R3_5  1
    X3_2  R3_6  1
    X3_2  R3_7  1
    X3_2  R3_8  1
    X3_2  R3_9  1
    X3_2  R3_10  1
    X3_2  R3_11  1
    X3_2  R3_12  1
    X3_2  R3_13  1
    X3_2  R3_14  1
    X3_2  R3_15  1
    X3_2  R3_16  1
    X3_2  R3_17  1
    X3_2  R3_18  1
    X3_2  R3_19  1
    X3_2  R3_20  1
    X3_2  R3_21  1
    X3_2  R3_22  1
    X3_2  R3_23  1
    X3_3  R3_0  1
    X3_3  R3_1  1
    X3_3  R3_2  1
    X3_3  R3_3  25
    X3_3  R3_4  1
    X3_3  R3_5  1
    X3_3  R3_6  1
    X3_3  R3_7  1
    X3_3  R3_8  1
    X3_3  R3_9  1
    X3_3  R3_10  1
    X3_3  R3_11  1
    X3_3  R3_12  1
    X3_3  R3_13  1
    X3_3  R3_14  1
    X3_3  R3_15  1
    X3_3  R3_16  1
    X3_3  R3_17  1
    X3_3  R3_18  1
    X3_3  R3_19  1
    X3_3  R3_20  1
    X3_3  R3_21  1
    X3_3  R3_22  1
    X3_3  R3_23  1
    X3_4  R3_0  1
    X3_4  R3_1  1
    X3_4  R3_2  1
    X3_4  R3_3  1
    X3_4  R3_4  25
    X3_4  R3_5  1
    X3_4  R3_6  1
    X3_4  R3_7  1
    X3_4  R3_8  1
    X3_4  R3_9  1
    X3_4  R3_10  1
    X3_4  R3_11  1
    X3_4  R3_12  1
    X3_4  R3_13  1
    X3_4  R3_14  1
    X3_4  R3_15  1
    X3_4  R3_16  1
    X3_4  R3_17  1
    X3_4  R3_18  1
    X3_4  R3_19  1
    X3_4  R3_20  1
    X3_4  R3_21  1
    X3_4  R3_22  1
    X3_4  R3_23  1
    X3_5  R3_0  1
    X3_5  R3_1  1
    X3_5  R3_2  1
    X3_5  R3_3  1
    X3_5  R3_4  1
    X3_5  R3_5  25
    X3_5  R3_6  1
    X3_5  R3_7  1
    X3_5  R3_8  1
    X3_5  R3_9  1
    X3_5  R3_10  1
    X3_5  R3_11  1
    X3_5  R3_12  1
    X3_5  R3_13  1
    X3_5  R3_14  1
    X3_5  R3_15  1
    X3_5  R3_16  1
    X3_5  R3_17  1
    X3_5  R3_18  1
    X3_5  R3_19  1
    X3_5  R3_20  1
    X3_5  R3_21  1
    X3_5  R3_22  1
    X3_5  R3_23  1
    X3_6  R3_0  1
    X3_6  R3_1  1
    X3_6  R3_2  1
    X3_6  R3_3  1
    X3_6  R3_4  1
    X3_6  R3_5  1
    X3_6  R3_6  25
    X3_6  R3_7  1
    X3_6  R3_8  1
    X3_6  R3_9  1
    X3_6  R3_10  1
    X3_6  R3_11  1
    X3_6  R3_12  1
    X3_6  R3_13  1
    X3_6  R3_14  1
    X3_6  R3_15  1
    X3_6  R3_16  1
    X3_6  R3_17  1
    X3_6  R3_18  1
    X3_6  R3_19  1
    X3_6  R3_20  1
    X3_6  R3_21  1
    X3_6  R3_22  1
    X3_6  R3_23  1
    X3_7  R3_0  1
    X3_7  R3_1  1
    X3_7  R3_2  1
    X3_7  R3_3  1
    X3_7  R3_4  1
    X3_7  R3_5  1
    X3_7  R3_6  1
    X3_7  R3_7  25
    X3_7  R3_8  1
    X3_7  R3_9  1
    X3_7  R3_10  1
    X3_7  R3_11  1
    X3_7  R3_12  1
    X3_7  R3_13  1
    X3_7  R3_14  1
    X3_7  R3_15  1
    X3_7  R3_16  1
    X3_7  R3_17  1
    X3_7  R3_18  1
    X3_7  R3_19  1
    X3_7  R3_20  1
    X3_7  R3_21  1
    X3_7  R3_22  1
    X3_7  R3_23  1
    X3_8  R3_0  1
    X3_8  R3_1  1
    X3_8  R3_2  1
    X3_8  R3_3  1
    X3_8  R3_4  1
    X3_8  R3_5  1
    X3_8  R3_6  1
    X3_8  R3_7  1
    X3_8  R3_8  25
    X3_8  R3_9  1
    X3_8  R3_10  1
    X3_8  R3_11  1
    X3_8  R3_12  1
    X3_8  R3_13  1
    X3_8  R3_14  1
    X3_8  R3_15  1
    X3_8  R3_16  1
    X3_8  R3_17  1
    X3_8  R3_18  1
    X3_8  R3_19  1
    X3_8  R3_20  1
    X3_8  R3_21  1
    X3_8  R3_22  1
    X3_8  R3_23  1
    X3_9  R3_0  1
    X3_9  R3_1  1
    X3_9  R3_2  1
    X3_9  R3_3  1
    X3_9  R3_4  1
    X3_9  R3_5  1
    X3_9  R3_6  1
    X3_9  R3_7  1
    X3_9  R3_8  1
    X3_9  R3_9  25
    X3_9  R3_10  1
    X3_9  R3_11  1
    X3_9  R3_12  1
    X3_9  R3_13  1
    X3_9  R3_14  1
    X3_9  R3_15  1
    X3_9  R3_16  1
    X3_9  R3_17  1
    X3_9  R3_18  1
    X3_9  R3_19  1
    X3_9  R3_20  1
    X3_9  R3_21  1
    X3_9  R3_22  1
    X3_9  R3_23  1
    X3_10  R3_0  1
    X3_10  R3_1  1
    X3_10  R3_2  1
    X3_10  R3_3  1
    X3_10  R3_4  1
    X3_10  R3_5  1
    X3_10  R3_6  1
    X3_10  R3_7  1
    X3_10  R3_8  1
    X3_10  R3_9  1
    X3_10  R3_10  25
    X3_10  R3_11  1
    X3_10  R3_12  1
    X3_10  R3_13  1
    X3_10  R3_14  1
    X3_10  R3_15  1
    X3_10  R3_16  1
    X3_10  R3_17  1
    X3_10  R3_18  1
    X3_10  R3_19  1
    X3_10  R3_20  1
    X3_10  R3_21  1
    X3_10  R3_22  1
    X3_10  R3_23  1
    X3_11  R3_0  1
    X3_11  R3_1  1
    X3_11  R3_2  1
    X3_11  R3_3  1
    X3_11  R3_4  1
    X3_11  R3_5  1
    X3_11  R3_6  1
    X3_11  R3_7  1
    X3_11  R3_8  1
    X3_11  R3_9  1
    X3_11  R3_10  1
    X3_11  R3_11  25
    X3_11  R3_12  1
    X3_11  R3_13  1
    X3_11  R3_14  1
    X3_11  R3_15  1
    X3_11  R3_16  1
    X3_11  R3_17  1
    X3_11  R3_18  1
    X3_11  R3_19  1
    X3_11  R3_20  1
    X3_11  R3_21  1
    X3_11  R3_22  1
    X3_11  R3_23  1
    X3_12  R3_0  1
    X3_12  R3_1  1
    X3_12  R3_2  1
    X3_12  R3_3  1
    X3_12  R3_4  1
    X3_12  R3_5  1
    X3_12  R3_6  1
    X3_12  R3_7  1
    X3_12  R3_8  1
    X3_12  R3_9  1
    X3_12  R3_10  1
    X3_12  R3_11  1
    X3_12  R3_12  25
    X3_12  R3_13  1
    X3_12  R3_14  1
    X3_12  R3_15  1
    X3_12  R3_16  1
    X3_12  R3_17  1
    X3_12  R3_18  1
    X3_12  R3_19  1
    X3_12  R3_20  1
    X3_12  R3_21  1
    X3_12  R3_22  1
    X3_12  R3_23  1
    X3_13  R3_0  1
    X3_13  R3_1  1
    X3_13  R3_2  1
    X3_13  R3_3  1
    X3_13  R3_4  1
    X3_13  R3_5  1
    X3_13  R3_6  1
    X3_13  R3_7  1
    X3_13  R3_8  1
    X3_13  R3_9  1
    X3_13  R3_10  1
    X3_13  R3_11  1
    X3_13  R3_12  1
    X3_13  R3_13  25
    X3_13  R3_14  1
    X3_13  R3_15  1
    X3_13  R3_16  1
    X3_13  R3_17  1
    X3_13  R3_18  1
    X3_13  R3_19  1
    X3_13  R3_20  1
    X3_13  R3_21  1
    X3_13  R3_22  1
    X3_13  R3_23  1
    X3_14  R3_0  1
    X3_14  R3_1  1
    X3_14  R3_2  1
    X3_14  R3_3  1
    X3_14  R3_4  1
    X3_14  R3_5  1
    X3_14  R3_6  1
    X3_14  R3_7  1
    X3_14  R3_8  1
    X3_14  R3_9  1
    X3_14  R3_10  1
    X3_14  R3_11  1
    X3_14  R3_12  1
    X3_14  R3_13  1
    X3_14  R3_14  25
    X3_14  R3_15  1
    X3_14  R3_16  1
    X3_14  R3_17  1
    X3_14  R3_18  1
    X3_14  R3_19  1
    X3_14  R3_20  1
    X3_14  R3_21  1
    X3_14  R3_22  1
    X3_14  R3_23  1
    X3_15  R3_0  1
    X3_15  R3_1  1
    X3_15  R3_2  1
    X3_15  R3_3  1
    X3_15  R3_4  1
    X3_15  R3_5  1
    X3_15  R3_6  1
    X3_15  R3_7  1
    X3_15  R3_8  1
    X3_15  R3_9  1
    X3_15  R3_10  1
    X3_15  R3_11  1
    X3_15  R3_12  1
    X3_15  R3_13  1
    X3_15  R3_14  1
    X3_15  R3_15  25
    X3_15  R3_16  1
    X3_15  R3_17  1
    X3_15  R3_18  1
    X3_15  R3_19  1
    X3_15  R3_20  1
    X3_15  R3_21  1
    X3_15  R3_22  1
    X3_15  R3_23  1
    X3_16  R3_0  1
    X3_16  R3_1  1
    X3_16  R3_2  1
    X3_16  R3_3  1
    X3_16  R3_4  1
    X3_16  R3_5  1
    X3_16  R3_6  1
    X3_16  R3_7  1
    X3_16  R3_8  1
    X3_16  R3_9  1
    X3_16  R3_10  1
    X3_16  R3_11  1
    X3_16  R3_12  1
    X3_16  R3_13  1
    X3_16  R3_14  1
    X3_16  R3_15  1
    X3_16  R3_16  25
    X3_16  R3_17  1
    X3_16  R3_18  1
    X3_16  R3_19  1
    X3_16  R3_20  1
    X3_16  R3_21  1
    X3_16  R3_22  1
    X3_16  R3_23  1
    X3_17  R3_0  1
    X3_17  R3_1  1
    X3_17  R3_2  1
    X3_17  R3_3  1
    X3_17  R3_4  1
    X3_17  R3_5  1
    X3_17  R3_6  1
    X3_17  R3_7  1
    X3_17  R3_8  1
    X3_17  R3_9  1
    X3_17  R3_10  1
    X3_17  R3_11  1
    X3_17  R3_12  1
    X3_17  R3_13  1
    X3_17  R3_14  1
    X3_17  R3_15  1
    X3_17  R3_16  1
    X3_17  R3_17  25
    X3_17  R3_18  1
    X3_17  R3_19  1
    X3_17  R3_20  1
    X3_17  R3_21  1
    X3_17  R3_22  1
    X3_17  R3_23  1
    X3_18  R3_0  1
    X3_18  R3_1  1
    X3_18  R3_2  1
    X3_18  R3_3  1
    X3_18  R3_4  1
    X3_18  R3_5  1
    X3_18  R3_6  1
    X3_18  R3_7  1
    X3_18  R3_8  1
    X3_18  R3_9  1
    X3_18  R3_10  1
    X3_18  R3_11  1
    X3_18  R3_12  1
    X3_18  R3_13  1
    X3_18  R3_14  1
    X3_18  R3_15  1
    X3_18  R3_16  1
    X3_18  R3_17  1
    X3_18  R3_18  25
    X3_18  R3_19  1
    X3_18  R3_20  1
    X3_18  R3_21  1
    X3_18  R3_22  1
    X3_18  R3_23  1
    X3_19  R3_0  1
    X3_19  R3_1  1
    X3_19  R3_2  1
    X3_19  R3_3  1
    X3_19  R3_4  1
    X3_19  R3_5  1
    X3_19  R3_6  1
    X3_19  R3_7  1
    X3_19  R3_8  1
    X3_19  R3_9  1
    X3_19  R3_10  1
    X3_19  R3_11  1
    X3_19  R3_12  1
    X3_19  R3_13  1
    X3_19  R3_14  1
    X3_19  R3_15  1
    X3_19  R3_16  1
    X3_19  R3_17  1
    X3_19  R3_18  1
    X3_19  R3_19  25
    X3_19  R3_20  1
    X3_19  R3_21  1
    X3_19  R3_22  1
    X3_19  R3_23  1
    X3_20  R3_0  1
    X3_20  R3_1  1
    X3_20  R3_2  1
    X3_20  R3_3  1
    X3_20  R3_4  1
    X3_20  R3_5  1
    X3_20  R3_6  1
    X3_20  R3_7  1
    X3_20  R3_8  1
    X3_20  R3_9  1
    X3_20  R3_10  1
    X3_20  R3_11  1
    X3_20  R3_12  1
    X3_20  R3_13  1
    X3_20  R3_14  1
    X3_20  R3_15  1
    X3_20  R3_16  1
    X3_20  R3_17  1
    X3_20  R3_18  1
    X3_20  R3_19  1
    X3_20  R3_20  25
    X3_20  R3_21  1
    X3_20  R3_22  1
    X3_20  R3_23  1
    X3_21  R3_0  1
    X3_21  R3_1  1
    X3_21  R3_2  1
    X3_21  R3_3  1
    X3_21  R3_4  1
    X3_21  R3_5  1
    X3_21  R3_6  1
    X3_21  R3_7  1
    X3_21  R3_8  1
    X3_21  R3_9  1
    X3_21  R3_10  1
    X3_21  R3_11  1
    X3_21  R3_12  1
    X3_21  R3_13  1
    X3_21  R3_14  1
    X3_21  R3_15  1
    X3_21  R3_16  1
    X3_21  R3_17  1
    X3_21  R3_18  1
    X3_21  R3_19  1
    X3_21  R3_20  1
    X3_21  R3_21  25
    X3_21  R3_22  1
    X3_21  R3_23  1
    X3_22  R3_0  1
    X3_22  R3_1  1
    X3_22  R3_2  1
    X3_22  R3_3  1
    X3_22  R3_4  1
    X3_22  R3_5  1
    X3_22  R3_6  1
    X3_22  R3_7  1
    X3_22  R3_8  1
    X3_22  R3_9  1
    X3_22  R3_10  1
    X3_22  R3_11  1
    X3_22  R3_12  1
    X3_22  R3_13  1
    X3_22  R3_14  1
    X3_22  R3_15  1
    X3_22  R3_16  1
    X3_22  R3_17  1
    X3_22  R3_18  1
    X3_22  R3_19  1
    X3_22  R3_20  1
    X3_22  R3_21  1
    X3_22  R3_22  25
    X3_22  R3_23  1
    X3_23  R3_0  1
    X3_23  R3_1  1
    X3_23  R3_2  1
    X3_23  R3_3  1
    X3_23  R3_4  1
    X3_23  R3_5  1
    X3_23  R3_6  1
    X3_23  R3_7  1
    X3_23  R3_8  1
    X3_23  R3_9  1
    X3_23  R3_10  1
    X3_23  R3_11  1
    X3_23  R3_12  1
    X3_23  R3_13  1
    X3_23  R3_14  1
    X3_23  R3_15  1
    X3_23  R3_16  1
    X3_23  R3_17  1
    X3_23  R3_18  1
    X3_23  R3_19  1
    X3_23  R3_20  1
    X3_23  R3_21  1
    X3_23  R3_22  1
    X3_23  R3_23  25
    X4_0  R4_0  25
    X4_0  R4_1  1
    X4_0  R4_2  1
    X4_0  R4_3  1
    X4_0  R4_4  1
    X4_0  R4_5  1
    X4_0  R4_6  1
    X4_0  R4_7  1
    X4_0  R4_8  1
    X4_0  R4_9  1
    X4_0  R4_10  1
    X4_0  R4_11  1
    X4_0  R4_12  1
    X4_0  R4_13  1
    X4_0  R4_14  1
    X4_0  R4_15  1
    X4_0  R4_16  1
    X4_0  R4_17  1
    X4_0  R4_18  1
    X4_0  R4_19  1
    X4_0  R4_20  1
    X4_0  R4_21  1
    X4_0  R4_22  1
    X4_0  R4_23  1
    X4_1  R4_0  1
    X4_1  R4_1  25
    X4_1  R4_2  1
    X4_1  R4_3  1
    X4_1  R4_4  1
    X4_1  R4_5  1
    X4_1  R4_6  1
    X4_1  R4_7  1
    X4_1  R4_8  1
    X4_1  R4_9  1
    X4_1  R4_10  1
    X4_1  R4_11  1
    X4_1  R4_12  1
    X4_1  R4_13  1
    X4_1  R4_14  1
    X4_1  R4_15  1
    X4_1  R4_16  1
    X4_1  R4_17  1
    X4_1  R4_18  1
    X4_1  R4_19  1
    X4_1  R4_20  1
    X4_1  R4_21  1
    X4_1  R4_22  1
    X4_1  R4_23  1
    X4_2  R4_0  1
    X4_2  R4_1  1
    X4_2  R4_2  25
    X4_2  R4_3  1
    X4_2  R4_4  1
    X4_2  R4_5  1
    X4_2  R4_6  1
    X4_2  R4_7  1
    X4_2  R4_8  1
    X4_2  R4_9  1
    X4_2  R4_10  1
    X4_2  R4_11  1
    X4_2  R4_12  1
    X4_2  R4_13  1
    X4_2  R4_14  1
    X4_2  R4_15  1
    X4_2  R4_16  1
    X4_2  R4_17  1
    X4_2  R4_18  1
    X4_2  R4_19  1
    X4_2  R4_20  1
    X4_2  R4_21  1
    X4_2  R4_22  1
    X4_2  R4_23  1
    X4_3  R4_0  1
    X4_3  R4_1  1
    X4_3  R4_2  1
    X4_3  R4_3  25
    X4_3  R4_4  1
    X4_3  R4_5  1
    X4_3  R4_6  1
    X4_3  R4_7  1
    X4_3  R4_8  1
    X4_3  R4_9  1
    X4_3  R4_10  1
    X4_3  R4_11  1
    X4_3  R4_12  1
    X4_3  R4_13  1
    X4_3  R4_14  1
    X4_3  R4_15  1
    X4_3  R4_16  1
    X4_3  R4_17  1
    X4_3  R4_18  1
    X4_3  R4_19  1
    X4_3  R4_20  1
    X4_3  R4_21  1
    X4_3  R4_22  1
    X4_3  R4_23  1
    X4_4  R4_0  1
    X4_4  R4_1  1
    X4_4  R4_2  1
    X4_4  R4_3  1
    X4_4  R4_4  25
    X4_4  R4_5  1
    X4_4  R4_6  1
    X4_4  R4_7  1
    X4_4  R4_8  1
    X4_4  R4_9  1
    X4_4  R4_10  1
    X4_4  R4_11  1
    X4_4  R4_12  1
    X4_4  R4_13  1
    X4_4  R4_14  1
    X4_4  R4_15  1
    X4_4  R4_16  1
    X4_4  R4_17  1
    X4_4  R4_18  1
    X4_4  R4_19  1
    X4_4  R4_20  1
    X4_4  R4_21  1
    X4_4  R4_22  1
    X4_4  R4_23  1
    X4_5  R4_0  1
    X4_5  R4_1  1
    X4_5  R4_2  1
    X4_5  R4_3  1
    X4_5  R4_4  1
    X4_5  R4_5  25
    X4_5  R4_6  1
    X4_5  R4_7  1
    X4_5  R4_8  1
    X4_5  R4_9  1
    X4_5  R4_10  1
    X4_5  R4_11  1
    X4_5  R4_12  1
    X4_5  R4_13  1
    X4_5  R4_14  1
    X4_5  R4_15  1
    X4_5  R4_16  1
    X4_5  R4_17  1
    X4_5  R4_18  1
    X4_5  R4_19  1
    X4_5  R4_20  1
    X4_5  R4_21  1
    X4_5  R4_22  1
    X4_5  R4_23  1
    X4_6  R4_0  1
    X4_6  R4_1  1
    X4_6  R4_2  1
    X4_6  R4_3  1
    X4_6  R4_4  1
    X4_6  R4_5  1
    X4_6  R4_6  25
    X4_6  R4_7  1
    X4_6  R4_8  1
    X4_6  R4_9  1
    X4_6  R4_10  1
    X4_6  R4_11  1
    X4_6  R4_12  1
    X4_6  R4_13  1
    X4_6  R4_14  1
    X4_6  R4_15  1
    X4_6  R4_16  1
    X4_6  R4_17  1
    X4_6  R4_18  1
    X4_6  R4_19  1
    X4_6  R4_20  1
    X4_6  R4_21  1
    X4_6  R4_22  1
    X4_6  R4_23  1
    X4_7  R4_0  1
    X4_7  R4_1  1
    X4_7  R4_2  1
    X4_7  R4_3  1
    X4_7  R4_4  1
    X4_7  R4_5  1
    X4_7  R4_6  1
    X4_7  R4_7  25
    X4_7  R4_8  1
    X4_7  R4_9  1
    X4_7  R4_10  1
    X4_7  R4_11  1
    X4_7  R4_12  1
    X4_7  R4_13  1
    X4_7  R4_14  1
    X4_7  R4_15  1
    X4_7  R4_16  1
    X4_7  R4_17  1
    X4_7  R4_18  1
    X4_7  R4_19  1
    X4_7  R4_20  1
    X4_7  R4_21  1
    X4_7  R4_22  1
    X4_7  R4_23  1
    X4_8  R4_0  1
    X4_8  R4_1  1
    X4_8  R4_2  1
    X4_8  R4_3  1
    X4_8  R4_4  1
    X4_8  R4_5  1
    X4_8  R4_6  1
    X4_8  R4_7  1
    X4_8  R4_8  25
    X4_8  R4_9  1
    X4_8  R4_10  1
    X4_8  R4_11  1
    X4_8  R4_12  1
    X4_8  R4_13  1
    X4_8  R4_14  1
    X4_8  R4_15  1
    X4_8  R4_16  1
    X4_8  R4_17  1
    X4_8  R4_18  1
    X4_8  R4_19  1
    X4_8  R4_20  1
    X4_8  R4_21  1
    X4_8  R4_22  1
    X4_8  R4_23  1
    X4_9  R4_0  1
    X4_9  R4_1  1
    X4_9  R4_2  1
    X4_9  R4_3  1
    X4_9  R4_4  1
    X4_9  R4_5  1
    X4_9  R4_6  1
    X4_9  R4_7  1
    X4_9  R4_8  1
    X4_9  R4_9  25
    X4_9  R4_10  1
    X4_9  R4_11  1
    X4_9  R4_12  1
    X4_9  R4_13  1
    X4_9  R4_14  1
    X4_9  R4_15  1
    X4_9  R4_16  1
    X4_9  R4_17  1
    X4_9  R4_18  1
    X4_9  R4_19  1
    X4_9  R4_20  1
    X4_9  R4_21  1
    X4_9  R4_22  1
    X4_9  R4_23  1
    X4_10  R4_0  1
    X4_10  R4_1  1
    X4_10  R4_2  1
    X4_10  R4_3  1
    X4_10  R4_4  1
    X4_10  R4_5  1
    X4_10  R4_6  1
    X4_10  R4_7  1
    X4_10  R4_8  1
    X4_10  R4_9  1
    X4_10  R4_10  25
    X4_10  R4_11  1
    X4_10  R4_12  1
    X4_10  R4_13  1
    X4_10  R4_14  1
    X4_10  R4_15  1
    X4_10  R4_16  1
    X4_10  R4_17  1
    X4_10  R4_18  1
    X4_10  R4_19  1
    X4_10  R4_20  1
    X4_10  R4_21  1
    X4_10  R4_22  1
    X4_10  R4_23  1
    X4_11  R4_0  1
    X4_11  R4_1  1
    X4_11  R4_2  1
    X4_11  R4_3  1
    X4_11  R4_4  1
    X4_11  R4_5  1
    X4_11  R4_6  1
    X4_11  R4_7  1
    X4_11  R4_8  1
    X4_11  R4_9  1
    X4_11  R4_10  1
    X4_11  R4_11  25
    X4_11  R4_12  1
    X4_11  R4_13  1
    X4_11  R4_14  1
    X4_11  R4_15  1
    X4_11  R4_16  1
    X4_11  R4_17  1
    X4_11  R4_18  1
    X4_11  R4_19  1
    X4_11  R4_20  1
    X4_11  R4_21  1
    X4_11  R4_22  1
    X4_11  R4_23  1
    X4_12  R4_0  1
    X4_12  R4_1  1
    X4_12  R4_2  1
    X4_12  R4_3  1
    X4_12  R4_4  1
    X4_12  R4_5  1
    X4_12  R4_6  1
    X4_12  R4_7  1
    X4_12  R4_8  1
    X4_12  R4_9  1
    X4_12  R4_10  1
    X4_12  R4_11  1
    X4_12  R4_12  25
    X4_12  R4_13  1
    X4_12  R4_14  1
    X4_12  R4_15  1
    X4_12  R4_16  1
    X4_12  R4_17  1
    X4_12  R4_18  1
    X4_12  R4_19  1
    X4_12  R4_20  1
    X4_12  R4_21  1
    X4_12  R4_22  1
    X4_12  R4_23  1
    X4_13  R4_0  1
    X4_13  R4_1  1
    X4_13  R4_2  1
    X4_13  R4_3  1
    X4_13  R4_4  1
    X4_13  R4_5  1
    X4_13  R4_6  1
    X4_13  R4_7  1
    X4_13  R4_8  1
    X4_13  R4_9  1
    X4_13  R4_10  1
    X4_13  R4_11  1
    X4_13  R4_12  1
    X4_13  R4_13  25
    X4_13  R4_14  1
    X4_13  R4_15  1
    X4_13  R4_16  1
    X4_13  R4_17  1
    X4_13  R4_18  1
    X4_13  R4_19  1
    X4_13  R4_20  1
    X4_13  R4_21  1
    X4_13  R4_22  1
    X4_13  R4_23  1
    X4_14  R4_0  1
    X4_14  R4_1  1
    X4_14  R4_2  1
    X4_14  R4_3  1
    X4_14  R4_4  1
    X4_14  R4_5  1
    X4_14  R4_6  1
    X4_14  R4_7  1
    X4_14  R4_8  1
    X4_14  R4_9  1
    X4_14  R4_10  1
    X4_14  R4_11  1
    X4_14  R4_12  1
    X4_14  R4_13  1
    X4_14  R4_14  25
    X4_14  R4_15  1
    X4_14  R4_16  1
    X4_14  R4_17  1
    X4_14  R4_18  1
    X4_14  R4_19  1
    X4_14  R4_20  1
    X4_14  R4_21  1
    X4_14  R4_22  1
    X4_14  R4_23  1
    X4_15  R4_0  1
    X4_15  R4_1  1
    X4_15  R4_2  1
    X4_15  R4_3  1
    X4_15  R4_4  1
    X4_15  R4_5  1
    X4_15  R4_6  1
    X4_15  R4_7  1
    X4_15  R4_8  1
    X4_15  R4_9  1
    X4_15  R4_10  1
    X4_15  R4_11  1
    X4_15  R4_12  1
    X4_15  R4_13  1
    X4_15  R4_14  1
    X4_15  R4_15  25
    X4_15  R4_16  1
    X4_15  R4_17  1
    X4_15  R4_18  1
    X4_15  R4_19  1
    X4_15  R4_20  1
    X4_15  R4_21  1
    X4_15  R4_22  1
    X4_15  R4_23  1
    X4_16  R4_0  1
    X4_16  R4_1  1
    X4_16  R4_2  1
    X4_16  R4_3  1
    X4_16  R4_4  1
    X4_16  R4_5  1
    X4_16  R4_6  1
    X4_16  R4_7  1
    X4_16  R4_8  1
    X4_16  R4_9  1
    X4_16  R4_10  1
    X4_16  R4_11  1
    X4_16  R4_12  1
    X4_16  R4_13  1
    X4_16  R4_14  1
    X4_16  R4_15  1
    X4_16  R4_16  25
    X4_16  R4_17  1
    X4_16  R4_18  1
    X4_16  R4_19  1
    X4_16  R4_20  1
    X4_16  R4_21  1
    X4_16  R4_22  1
    X4_16  R4_23  1
    X4_17  R4_0  1
    X4_17  R4_1  1
    X4_17  R4_2  1
    X4_17  R4_3  1
    X4_17  R4_4  1
    X4_17  R4_5  1
    X4_17  R4_6  1
    X4_17  R4_7  1
    X4_17  R4_8  1
    X4_17  R4_9  1
    X4_17  R4_10  1
    X4_17  R4_11  1
    X4_17  R4_12  1
    X4_17  R4_13  1
    X4_17  R4_14  1
    X4_17  R4_15  1
    X4_17  R4_16  1
    X4_17  R4_17  25
    X4_17  R4_18  1
    X4_17  R4_19  1
    X4_17  R4_20  1
    X4_17  R4_21  1
    X4_17  R4_22  1
    X4_17  R4_23  1
    X4_18  R4_0  1
    X4_18  R4_1  1
    X4_18  R4_2  1
    X4_18  R4_3  1
    X4_18  R4_4  1
    X4_18  R4_5  1
    X4_18  R4_6  1
    X4_18  R4_7  1
    X4_18  R4_8  1
    X4_18  R4_9  1
    X4_18  R4_10  1
    X4_18  R4_11  1
    X4_18  R4_12  1
    X4_18  R4_13  1
    X4_18  R4_14  1
    X4_18  R4_15  1
    X4_18  R4_16  1
    X4_18  R4_17  1
    X4_18  R4_18  25
    X4_18  R4_19  1
    X4_18  R4_20  1
    X4_18  R4_21  1
    X4_18  R4_22  1
    X4_18  R4_23  1
    X4_19  R4_0  1
    X4_19  R4_1  1
    X4_19  R4_2  1
    X4_19  R4_3  1
    X4_19  R4_4  1
    X4_19  R4_5  1
    X4_19  R4_6  1
    X4_19  R4_7  1
    X4_19  R4_8  1
    X4_19  R4_9  1
    X4_19  R4_10  1
    X4_19  R4_11  1
    X4_19  R4_12  1
    X4_19  R4_13  1
    X4_19  R4_14  1
    X4_19  R4_15  1
    X4_19  R4_16  1
    X4_19  R4_17  1
    X4_19  R4_18  1
    X4_19  R4_19  25
    X4_19  R4_20  1
    X4_19  R4_21  1
    X4_19  R4_22  1
    X4_19  R4_23  1
    X4_20  R4_0  1
    X4_20  R4_1  1
    X4_20  R4_2  1
    X4_20  R4_3  1
    X4_20  R4_4  1
    X4_20  R4_5  1
    X4_20  R4_6  1
    X4_20  R4_7  1
    X4_20  R4_8  1
    X4_20  R4_9  1
    X4_20  R4_10  1
    X4_20  R4_11  1
    X4_20  R4_12  1
    X4_20  R4_13  1
    X4_20  R4_14  1
    X4_20  R4_15  1
    X4_20  R4_16  1
    X4_20  R4_17  1
    X4_20  R4_18  1
    X4_20  R4_19  1
    X4_20  R4_20  25
    X4_20  R4_21  1
    X4_20  R4_22  1
    X4_20  R4_23  1
    X4_21  R4_0  1
    X4_21  R4_1  1
    X4_21  R4_2  1
    X4_21  R4_3  1
    X4_21  R4_4  1
    X4_21  R4_5  1
    X4_21  R4_6  1
    X4_21  R4_7  1
    X4_21  R4_8  1
    X4_21  R4_9  1
    X4_21  R4_10  1
    X4_21  R4_11  1
    X4_21  R4_12  1
    X4_21  R4_13  1
    X4_21  R4_14  1
    X4_21  R4_15  1
    X4_21  R4_16  1
    X4_21  R4_17  1
    X4_21  R4_18  1
    X4_21  R4_19  1
    X4_21  R4_20  1
    X4_21  R4_21  25
    X4_21  R4_22  1
    X4_21  R4_23  1
    X4_22  R4_0  1
    X4_22  R4_1  1
    X4_22  R4_2  1
    X4_22  R4_3  1
    X4_22  R4_4  1
    X4_22  R4_5  1
    X4_22  R4_6  1
    X4_22  R4_7  1
    X4_22  R4_8  1
    X4_22  R4_9  1
    X4_22  R4_10  1
    X4_22  R4_11  1
    X4_22  R4_12  1
    X4_22  R4_13  1
    X4_22  R4_14  1
    X4_22  R4_15  1
    X4_22  R4_16  1
    X4_22  R4_17  1
    X4_22  R4_18  1
    X4_22  R4_19  1
    X4_22  R4_20  1
    X4_22  R4_21  1
    X4_22  R4_22  25
    X4_22  R4_23  1
    X4_23  R4_0  1
    X4_23  R4_1  1
    X4_23  R4_2  1
    X4_23  R4_3  1
    X4_23  R4_4  1
    X4_23  R4_5  1
    X4_23  R4_6  1
    X4_23  R4_7  1
    X4_23  R4_8  1
    X4_23  R4_9  1
    X4_23  R4_10  1
    X4_23  R4_11  1
    X4_23  R4_12  1
    X4_23  R4_13  1
    X4_23  R4_14  1
    X4_23  R4_15  1
    X4_23  R4_16  1
    X4_23  R4_17  1
    X4_23  R4_18  1
    X4_23  R4_19  1
    X4_23  R4_20  1
    X4_23  R4_21  1
    X4_23  R4_22  1
    X4_23  R4_23  25
    X5_0  R5_0  25
    X5_0  R5_1  1
    X5_0  R5_2  1
    X5_0  R5_3  1
    X5_0  R5_4  1
    X5_0  R5_5  1
    X5_0  R5_6  1
    X5_0  R5_7  1
    X5_0  R5_8  1
    X5_0  R5_9  1
    X5_0  R5_10  1
    X5_0  R5_11  1
    X5_0  R5_12  1
    X5_0  R5_13  1
    X5_0  R5_14  1
    X5_0  R5_15  1
    X5_0  R5_16  1
    X5_0  R5_17  1
    X5_0  R5_18  1
    X5_0  R5_19  1
    X5_0  R5_20  1
    X5_0  R5_21  1
    X5_0  R5_22  1
    X5_0  R5_23  1
    X5_1  R5_0  1
    X5_1  R5_1  25
    X5_1  R5_2  1
    X5_1  R5_3  1
    X5_1  R5_4  1
    X5_1  R5_5  1
    X5_1  R5_6  1
    X5_1  R5_7  1
    X5_1  R5_8  1
    X5_1  R5_9  1
    X5_1  R5_10  1
    X5_1  R5_11  1
    X5_1  R5_12  1
    X5_1  R5_13  1
    X5_1  R5_14  1
    X5_1  R5_15  1
    X5_1  R5_16  1
    X5_1  R5_17  1
    X5_1  R5_18  1
    X5_1  R5_19  1
    X5_1  R5_20  1
    X5_1  R5_21  1
    X5_1  R5_22  1
    X5_1  R5_23  1
    X5_2  R5_0  1
    X5_2  R5_1  1
    X5_2  R5_2  25
    X5_2  R5_3  1
    X5_2  R5_4  1
    X5_2  R5_5  1
    X5_2  R5_6  1
    X5_2  R5_7  1
    X5_2  R5_8  1
    X5_2  R5_9  1
    X5_2  R5_10  1
    X5_2  R5_11  1
    X5_2  R5_12  1
    X5_2  R5_13  1
    X5_2  R5_14  1
    X5_2  R5_15  1
    X5_2  R5_16  1
    X5_2  R5_17  1
    X5_2  R5_18  1
    X5_2  R5_19  1
    X5_2  R5_20  1
    X5_2  R5_21  1
    X5_2  R5_22  1
    X5_2  R5_23  1
    X5_3  R5_0  1
    X5_3  R5_1  1
    X5_3  R5_2  1
    X5_3  R5_3  25
    X5_3  R5_4  1
    X5_3  R5_5  1
    X5_3  R5_6  1
    X5_3  R5_7  1
    X5_3  R5_8  1
    X5_3  R5_9  1
    X5_3  R5_10  1
    X5_3  R5_11  1
    X5_3  R5_12  1
    X5_3  R5_13  1
    X5_3  R5_14  1
    X5_3  R5_15  1
    X5_3  R5_16  1
    X5_3  R5_17  1
    X5_3  R5_18  1
    X5_3  R5_19  1
    X5_3  R5_20  1
    X5_3  R5_21  1
    X5_3  R5_22  1
    X5_3  R5_23  1
    X5_4  R5_0  1
    X5_4  R5_1  1
    X5_4  R5_2  1
    X5_4  R5_3  1
    X5_4  R5_4  25
    X5_4  R5_5  1
    X5_4  R5_6  1
    X5_4  R5_7  1
    X5_4  R5_8  1
    X5_4  R5_9  1
    X5_4  R5_10  1
    X5_4  R5_11  1
    X5_4  R5_12  1
    X5_4  R5_13  1
    X5_4  R5_14  1
    X5_4  R5_15  1
    X5_4  R5_16  1
    X5_4  R5_17  1
    X5_4  R5_18  1
    X5_4  R5_19  1
    X5_4  R5_20  1
    X5_4  R5_21  1
    X5_4  R5_22  1
    X5_4  R5_23  1
    X5_5  R5_0  1
    X5_5  R5_1  1
    X5_5  R5_2  1
    X5_5  R5_3  1
    X5_5  R5_4  1
    X5_5  R5_5  25
    X5_5  R5_6  1
    X5_5  R5_7  1
    X5_5  R5_8  1
    X5_5  R5_9  1
    X5_5  R5_10  1
    X5_5  R5_11  1
    X5_5  R5_12  1
    X5_5  R5_13  1
    X5_5  R5_14  1
    X5_5  R5_15  1
    X5_5  R5_16  1
    X5_5  R5_17  1
    X5_5  R5_18  1
    X5_5  R5_19  1
    X5_5  R5_20  1
    X5_5  R5_21  1
    X5_5  R5_22  1
    X5_5  R5_23  1
    X5_6  R5_0  1
    X5_6  R5_1  1
    X5_6  R5_2  1
    X5_6  R5_3  1
    X5_6  R5_4  1
    X5_6  R5_5  1
    X5_6  R5_6  25
    X5_6  R5_7  1
    X5_6  R5_8  1
    X5_6  R5_9  1
    X5_6  R5_10  1
    X5_6  R5_11  1
    X5_6  R5_12  1
    X5_6  R5_13  1
    X5_6  R5_14  1
    X5_6  R5_15  1
    X5_6  R5_16  1
    X5_6  R5_17  1
    X5_6  R5_18  1
    X5_6  R5_19  1
    X5_6  R5_20  1
    X5_6  R5_21  1
    X5_6  R5_22  1
    X5_6  R5_23  1
    X5_7  R5_0  1
    X5_7  R5_1  1
    X5_7  R5_2  1
    X5_7  R5_3  1
    X5_7  R5_4  1
    X5_7  R5_5  1
    X5_7  R5_6  1
    X5_7  R5_7  25
    X5_7  R5_8  1
    X5_7  R5_9  1
    X5_7  R5_10  1
    X5_7  R5_11  1
    X5_7  R5_12  1
    X5_7  R5_13  1
    X5_7  R5_14  1
    X5_7  R5_15  1
    X5_7  R5_16  1
    X5_7  R5_17  1
    X5_7  R5_18  1
    X5_7  R5_19  1
    X5_7  R5_20  1
    X5_7  R5_21  1
    X5_7  R5_22  1
    X5_7  R5_23  1
    X5_8  R5_0  1
    X5_8  R5_1  1
    X5_8  R5_2  1
    X5_8  R5_3  1
    X5_8  R5_4  1
    X5_8  R5_5  1
    X5_8  R5_6  1
    X5_8  R5_7  1
    X5_8  R5_8  25
    X5_8  R5_9  1
    X5_8  R5_10  1
    X5_8  R5_11  1
    X5_8  R5_12  1
    X5_8  R5_13  1
    X5_8  R5_14  1
    X5_8  R5_15  1
    X5_8  R5_16  1
    X5_8  R5_17  1
    X5_8  R5_18  1
    X5_8  R5_19  1
    X5_8  R5_20  1
    X5_8  R5_21  1
    X5_8  R5_22  1
    X5_8  R5_23  1
    X5_9  R5_0  1
    X5_9  R5_1  1
    X5_9  R5_2  1
    X5_9  R5_3  1
    X5_9  R5_4  1
    X5_9  R5_5  1
    X5_9  R5_6  1
    X5_9  R5_7  1
    X5_9  R5_8  1
    X5_9  R5_9  25
    X5_9  R5_10  1
    X5_9  R5_11  1
    X5_9  R5_12  1
    X5_9  R5_13  1
    X5_9  R5_14  1
    X5_9  R5_15  1
    X5_9  R5_16  1
    X5_9  R5_17  1
    X5_9  R5_18  1
    X5_9  R5_19  1
    X5_9  R5_20  1
    X5_9  R5_21  1
    X5_9  R5_22  1
    X5_9  R5_23  1
    X5_10  R5_0  1
    X5_10  R5_1  1
    X5_10  R5_2  1
    X5_10  R5_3  1
    X5_10  R5_4  1
    X5_10  R5_5  1
    X5_10  R5_6  1
    X5_10  R5_7  1
    X5_10  R5_8  1
    X5_10  R5_9  1
    X5_10  R5_10  25
    X5_10  R5_11  1
    X5_10  R5_12  1
    X5_10  R5_13  1
    X5_10  R5_14  1
    X5_10  R5_15  1
    X5_10  R5_16  1
    X5_10  R5_17  1
    X5_10  R5_18  1
    X5_10  R5_19  1
    X5_10  R5_20  1
    X5_10  R5_21  1
    X5_10  R5_22  1
    X5_10  R5_23  1
    X5_11  R5_0  1
    X5_11  R5_1  1
    X5_11  R5_2  1
    X5_11  R5_3  1
    X5_11  R5_4  1
    X5_11  R5_5  1
    X5_11  R5_6  1
    X5_11  R5_7  1
    X5_11  R5_8  1
    X5_11  R5_9  1
    X5_11  R5_10  1
    X5_11  R5_11  25
    X5_11  R5_12  1
    X5_11  R5_13  1
    X5_11  R5_14  1
    X5_11  R5_15  1
    X5_11  R5_16  1
    X5_11  R5_17  1
    X5_11  R5_18  1
    X5_11  R5_19  1
    X5_11  R5_20  1
    X5_11  R5_21  1
    X5_11  R5_22  1
    X5_11  R5_23  1
    X5_12  R5_0  1
    X5_12  R5_1  1
    X5_12  R5_2  1
    X5_12  R5_3  1
    X5_12  R5_4  1
    X5_12  R5_5  1
    X5_12  R5_6  1
    X5_12  R5_7  1
    X5_12  R5_8  1
    X5_12  R5_9  1
    X5_12  R5_10  1
    X5_12  R5_11  1
    X5_12  R5_12  25
    X5_12  R5_13  1
    X5_12  R5_14  1
    X5_12  R5_15  1
    X5_12  R5_16  1
    X5_12  R5_17  1
    X5_12  R5_18  1
    X5_12  R5_19  1
    X5_12  R5_20  1
    X5_12  R5_21  1
    X5_12  R5_22  1
    X5_12  R5_23  1
    X5_13  R5_0  1
    X5_13  R5_1  1
    X5_13  R5_2  1
    X5_13  R5_3  1
    X5_13  R5_4  1
    X5_13  R5_5  1
    X5_13  R5_6  1
    X5_13  R5_7  1
    X5_13  R5_8  1
    X5_13  R5_9  1
    X5_13  R5_10  1
    X5_13  R5_11  1
    X5_13  R5_12  1
    X5_13  R5_13  25
    X5_13  R5_14  1
    X5_13  R5_15  1
    X5_13  R5_16  1
    X5_13  R5_17  1
    X5_13  R5_18  1
    X5_13  R5_19  1
    X5_13  R5_20  1
    X5_13  R5_21  1
    X5_13  R5_22  1
    X5_13  R5_23  1
    X5_14  R5_0  1
    X5_14  R5_1  1
    X5_14  R5_2  1
    X5_14  R5_3  1
    X5_14  R5_4  1
    X5_14  R5_5  1
    X5_14  R5_6  1
    X5_14  R5_7  1
    X5_14  R5_8  1
    X5_14  R5_9  1
    X5_14  R5_10  1
    X5_14  R5_11  1
    X5_14  R5_12  1
    X5_14  R5_13  1
    X5_14  R5_14  25
    X5_14  R5_15  1
    X5_14  R5_16  1
    X5_14  R5_17  1
    X5_14  R5_18  1
    X5_14  R5_19  1
    X5_14  R5_20  1
    X5_14  R5_21  1
    X5_14  R5_22  1
    X5_14  R5_23  1
    X5_15  R5_0  1
    X5_15  R5_1  1
    X5_15  R5_2  1
    X5_15  R5_3  1
    X5_15  R5_4  1
    X5_15  R5_5  1
    X5_15  R5_6  1
    X5_15  R5_7  1
    X5_15  R5_8  1
    X5_15  R5_9  1
    X5_15  R5_10  1
    X5_15  R5_11  1
    X5_15  R5_12  1
    X5_15  R5_13  1
    X5_15  R5_14  1
    X5_15  R5_15  25
    X5_15  R5_16  1
    X5_15  R5_17  1
    X5_15  R5_18  1
    X5_15  R5_19  1
    X5_15  R5_20  1
    X5_15  R5_21  1
    X5_15  R5_22  1
    X5_15  R5_23  1
    X5_16  R5_0  1
    X5_16  R5_1  1
    X5_16  R5_2  1
    X5_16  R5_3  1
    X5_16  R5_4  1
    X5_16  R5_5  1
    X5_16  R5_6  1
    X5_16  R5_7  1
    X5_16  R5_8  1
    X5_16  R5_9  1
    X5_16  R5_10  1
    X5_16  R5_11  1
    X5_16  R5_12  1
    X5_16  R5_13  1
    X5_16  R5_14  1
    X5_16  R5_15  1
    X5_16  R5_16  25
    X5_16  R5_17  1
    X5_16  R5_18  1
    X5_16  R5_19  1
    X5_16  R5_20  1
    X5_16  R5_21  1
    X5_16  R5_22  1
    X5_16  R5_23  1
    X5_17  R5_0  1
    X5_17  R5_1  1
    X5_17  R5_2  1
    X5_17  R5_3  1
    X5_17  R5_4  1
    X5_17  R5_5  1
    X5_17  R5_6  1
    X5_17  R5_7  1
    X5_17  R5_8  1
    X5_17  R5_9  1
    X5_17  R5_10  1
    X5_17  R5_11  1
    X5_17  R5_12  1
    X5_17  R5_13  1
    X5_17  R5_14  1
    X5_17  R5_15  1
    X5_17  R5_16  1
    X5_17  R5_17  25
    X5_17  R5_18  1
    X5_17  R5_19  1
    X5_17  R5_20  1
    X5_17  R5_21  1
    X5_17  R5_22  1
    X5_17  R5_23  1
    X5_18  R5_0  1
    X5_18  R5_1  1
    X5_18  R5_2  1
    X5_18  R5_3  1
    X5_18  R5_4  1
    X5_18  R5_5  1
    X5_18  R5_6  1
    X5_18  R5_7  1
    X5_18  R5_8  1
    X5_18  R5_9  1
    X5_18  R5_10  1
    X5_18  R5_11  1
    X5_18  R5_12  1
    X5_18  R5_13  1
    X5_18  R5_14  1
    X5_18  R5_15  1
    X5_18  R5_16  1
    X5_18  R5_17  1
    X5_18  R5_18  25
    X5_18  R5_19  1
    X5_18  R5_20  1
    X5_18  R5_21  1
    X5_18  R5_22  1
    X5_18  R5_23  1
    X5_19  R5_0  1
    X5_19  R5_1  1
    X5_19  R5_2  1
    X5_19  R5_3  1
    X5_19  R5_4  1
    X5_19  R5_5  1
    X5_19  R5_6  1
    X5_19  R5_7  1
    X5_19  R5_8  1
    X5_19  R5_9  1
    X5_19  R5_10  1
    X5_19  R5_11  1
    X5_19  R5_12  1
    X5_19  R5_13  1
    X5_19  R5_14  1
    X5_19  R5_15  1
    X5_19  R5_16  1
    X5_19  R5_17  1
    X5_19  R5_18  1
    X5_19  R5_19  25
    X5_19  R5_20  1
    X5_19  R5_21  1
    X5_19  R5_22  1
    X5_19  R5_23  1
    X5_20  R5_0  1
    X5_20  R5_1  1
    X5_20  R5_2  1
    X5_20  R5_3  1
    X5_20  R5_4  1
    X5_20  R5_5  1
    X5_20  R5_6  1
    X5_20  R5_7  1
    X5_20  R5_8  1
    X5_20  R5_9  1
    X5_20  R5_10  1
    X5_20  R5_11  1
    X5_20  R5_12  1
    X5_20  R5_13  1
    X5_20  R5_14  1
    X5_20  R5_15  1
    X5_20  R5_16  1
    X5_20  R5_17  1
    X5_20  R5_18  1
    X5_20  R5_19  1
    X5_20  R5_20  25
    X5_20  R5_21  1
    X5_20  R5_22  1
    X5_20  R5_23  1
    X5_21  R5_0  1
    X5_21  R5_1  1
    X5_21  R5_2  1
    X5_21  R5_3  1
    X5_21  R5_4  1
    X5_21  R5_5  1
    X5_21  R5_6  1
    X5_21  R5_7  1
    X5_21  R5_8  1
    X5_21  R5_9  1
    X5_21  R5_10  1
    X5_21  R5_11  1
    X5_21  R5_12  1
    X5_21  R5_13  1
    X5_21  R5_14  1
    X5_21  R5_15  1
    X5_21  R5_16  1
    X5_21  R5_17  1
    X5_21  R5_18  1
    X5_21  R5_19  1
    X5_21  R5_20  1
    X5_21  R5_21  25
    X5_21  R5_22  1
    X5_21  R5_23  1
    X5_22  R5_0  1
    X5_22  R5_1  1
    X5_22  R5_2  1
    X5_22  R5_3  1
    X5_22  R5_4  1
    X5_22  R5_5  1
    X5_22  R5_6  1
    X5_22  R5_7  1
    X5_22  R5_8  1
    X5_22  R5_9  1
    X5_22  R5_10  1
    X5_22  R5_11  1
    X5_22  R5_12  1
    X5_22  R5_13  1
    X5_22  R5_14  1
    X5_22  R5_15  1
    X5_22  R5_16  1
    X5_22  R5_17  1
    X5_22  R5_18  1
    X5_22  R5_19  1
    X5_22  R5_20  1
    X5_22  R5_21  1
    X5_22  R5_22  25
    X5_22  R5_23  1
    X5_23  R5_0  1
    X5_23  R5_1  1
    X5_23  R5_2  1
    X5_23  R5_3  1
    X5_23  R5_4  1
    X5_23  R5_5  1
    X5_23  R5_6  1
    X5_23  R5_7  1
    X5_23  R5_8  1
    X5_23  R5_9  1
    X5_23  R5_10  1
    X5_23  R5_11  1
    X5_23  R5_12  1
    X5_23  R5_13  1
    X5_23  R5_14  1
    X5_23  R5_15  1
    X5_23  R5_16  1
    X5_23  R5_17  1
    X5_23  R5_18  1
    X5_23  R5_19  1
    X5_23  R5_20  1
    X5_23  R5_21  1
    X5_23  R5_22  1
    X5_23  R5_23  25
    X6_0  R6_0  25
    X6_0  R6_1  1
    X6_0  R6_2  1
    X6_0  R6_3  1
    X6_0  R6_4  1
    X6_0  R6_5  1
    X6_0  R6_6  1
    X6_0  R6_7  1
    X6_0  R6_8  1
    X6_0  R6_9  1
    X6_0  R6_10  1
    X6_0  R6_11  1
    X6_0  R6_12  1
    X6_0  R6_13  1
    X6_0  R6_14  1
    X6_0  R6_15  1
    X6_0  R6_16  1
    X6_0  R6_17  1
    X6_0  R6_18  1
    X6_0  R6_19  1
    X6_0  R6_20  1
    X6_0  R6_21  1
    X6_0  R6_22  1
    X6_0  R6_23  1
    X6_1  R6_0  1
    X6_1  R6_1  25
    X6_1  R6_2  1
    X6_1  R6_3  1
    X6_1  R6_4  1
    X6_1  R6_5  1
    X6_1  R6_6  1
    X6_1  R6_7  1
    X6_1  R6_8  1
    X6_1  R6_9  1
    X6_1  R6_10  1
    X6_1  R6_11  1
    X6_1  R6_12  1
    X6_1  R6_13  1
    X6_1  R6_14  1
    X6_1  R6_15  1
    X6_1  R6_16  1
    X6_1  R6_17  1
    X6_1  R6_18  1
    X6_1  R6_19  1
    X6_1  R6_20  1
    X6_1  R6_21  1
    X6_1  R6_22  1
    X6_1  R6_23  1
    X6_2  R6_0  1
    X6_2  R6_1  1
    X6_2  R6_2  25
    X6_2  R6_3  1
    X6_2  R6_4  1
    X6_2  R6_5  1
    X6_2  R6_6  1
    X6_2  R6_7  1
    X6_2  R6_8  1
    X6_2  R6_9  1
    X6_2  R6_10  1
    X6_2  R6_11  1
    X6_2  R6_12  1
    X6_2  R6_13  1
    X6_2  R6_14  1
    X6_2  R6_15  1
    X6_2  R6_16  1
    X6_2  R6_17  1
    X6_2  R6_18  1
    X6_2  R6_19  1
    X6_2  R6_20  1
    X6_2  R6_21  1
    X6_2  R6_22  1
    X6_2  R6_23  1
    X6_3  R6_0  1
    X6_3  R6_1  1
    X6_3  R6_2  1
    X6_3  R6_3  25
    X6_3  R6_4  1
    X6_3  R6_5  1
    X6_3  R6_6  1
    X6_3  R6_7  1
    X6_3  R6_8  1
    X6_3  R6_9  1
    X6_3  R6_10  1
    X6_3  R6_11  1
    X6_3  R6_12  1
    X6_3  R6_13  1
    X6_3  R6_14  1
    X6_3  R6_15  1
    X6_3  R6_16  1
    X6_3  R6_17  1
    X6_3  R6_18  1
    X6_3  R6_19  1
    X6_3  R6_20  1
    X6_3  R6_21  1
    X6_3  R6_22  1
    X6_3  R6_23  1
    X6_4  R6_0  1
    X6_4  R6_1  1
    X6_4  R6_2  1
    X6_4  R6_3  1
    X6_4  R6_4  25
    X6_4  R6_5  1
    X6_4  R6_6  1
    X6_4  R6_7  1
    X6_4  R6_8  1
    X6_4  R6_9  1
    X6_4  R6_10  1
    X6_4  R6_11  1
    X6_4  R6_12  1
    X6_4  R6_13  1
    X6_4  R6_14  1
    X6_4  R6_15  1
    X6_4  R6_16  1
    X6_4  R6_17  1
    X6_4  R6_18  1
    X6_4  R6_19  1
    X6_4  R6_20  1
    X6_4  R6_21  1
    X6_4  R6_22  1
    X6_4  R6_23  1
    X6_5  R6_0  1
    X6_5  R6_1  1
    X6_5  R6_2  1
    X6_5  R6_3  1
    X6_5  R6_4  1
    X6_5  R6_5  25
    X6_5  R6_6  1
    X6_5  R6_7  1
    X6_5  R6_8  1
    X6_5  R6_9  1
    X6_5  R6_10  1
    X6_5  R6_11  1
    X6_5  R6_12  1
    X6_5  R6_13  1
    X6_5  R6_14  1
    X6_5  R6_15  1
    X6_5  R6_16  1
    X6_5  R6_17  1
    X6_5  R6_18  1
    X6_5  R6_19  1
    X6_5  R6_20  1
    X6_5  R6_21  1
    X6_5  R6_22  1
    X6_5  R6_23  1
    X6_6  R6_0  1
    X6_6  R6_1  1
    X6_6  R6_2  1
    X6_6  R6_3  1
    X6_6  R6_4  1
    X6_6  R6_5  1
    X6_6  R6_6  25
    X6_6  R6_7  1
    X6_6  R6_8  1
    X6_6  R6_9  1
    X6_6  R6_10  1
    X6_6  R6_11  1
    X6_6  R6_12  1
    X6_6  R6_13  1
    X6_6  R6_14  1
    X6_6  R6_15  1
    X6_6  R6_16  1
    X6_6  R6_17  1
    X6_6  R6_18  1
    X6_6  R6_19  1
    X6_6  R6_20  1
    X6_6  R6_21  1
    X6_6  R6_22  1
    X6_6  R6_23  1
    X6_7  R6_0  1
    X6_7  R6_1  1
    X6_7  R6_2  1
    X6_7  R6_3  1
    X6_7  R6_4  1
    X6_7  R6_5  1
    X6_7  R6_6  1
    X6_7  R6_7  25
    X6_7  R6_8  1
    X6_7  R6_9  1
    X6_7  R6_10  1
    X6_7  R6_11  1
    X6_7  R6_12  1
    X6_7  R6_13  1
    X6_7  R6_14  1
    X6_7  R6_15  1
    X6_7  R6_16  1
    X6_7  R6_17  1
    X6_7  R6_18  1
    X6_7  R6_19  1
    X6_7  R6_20  1
    X6_7  R6_21  1
    X6_7  R6_22  1
    X6_7  R6_23  1
    X6_8  R6_0  1
    X6_8  R6_1  1
    X6_8  R6_2  1
    X6_8  R6_3  1
    X6_8  R6_4  1
    X6_8  R6_5  1
    X6_8  R6_6  1
    X6_8  R6_7  1
    X6_8  R6_8  25
    X6_8  R6_9  1
    X6_8  R6_10  1
    X6_8  R6_11  1
    X6_8  R6_12  1
    X6_8  R6_13  1
    X6_8  R6_14  1
    X6_8  R6_15  1
    X6_8  R6_16  1
    X6_8  R6_17  1
    X6_8  R6_18  1
    X6_8  R6_19  1
    X6_8  R6_20  1
    X6_8  R6_21  1
    X6_8  R6_22  1
    X6_8  R6_23  1
    X6_9  R6_0  1
    X6_9  R6_1  1
    X6_9  R6_2  1
    X6_9  R6_3  1
    X6_9  R6_4  1
    X6_9  R6_5  1
    X6_9  R6_6  1
    X6_9  R6_7  1
    X6_9  R6_8  1
    X6_9  R6_9  25
    X6_9  R6_10  1
    X6_9  R6_11  1
    X6_9  R6_12  1
    X6_9  R6_13  1
    X6_9  R6_14  1
    X6_9  R6_15  1
    X6_9  R6_16  1
    X6_9  R6_17  1
    X6_9  R6_18  1
    X6_9  R6_19  1
    X6_9  R6_20  1
    X6_9  R6_21  1
    X6_9  R6_22  1
    X6_9  R6_23  1
    X6_10  R6_0  1
    X6_10  R6_1  1
    X6_10  R6_2  1
    X6_10  R6_3  1
    X6_10  R6_4  1
    X6_10  R6_5  1
    X6_10  R6_6  1
    X6_10  R6_7  1
    X6_10  R6_8  1
    X6_10  R6_9  1
    X6_10  R6_10  25
    X6_10  R6_11  1
    X6_10  R6_12  1
    X6_10  R6_13  1
    X6_10  R6_14  1
    X6_10  R6_15  1
    X6_10  R6_16  1
    X6_10  R6_17  1
    X6_10  R6_18  1
    X6_10  R6_19  1
    X6_10  R6_20  1
    X6_10  R6_21  1
    X6_10  R6_22  1
    X6_10  R6_23  1
    X6_11  R6_0  1
    X6_11  R6_1  1
    X6_11  R6_2  1
    X6_11  R6_3  1
    X6_11  R6_4  1
    X6_11  R6_5  1
    X6_11  R6_6  1
    X6_11  R6_7  1
    X6_11  R6_8  1
    X6_11  R6_9  1
    X6_11  R6_10  1
    X6_11  R6_11  25
    X6_11  R6_12  1
    X6_11  R6_13  1
    X6_11  R6_14  1
    X6_11  R6_15  1
    X6_11  R6_16  1
    X6_11  R6_17  1
    X6_11  R6_18  1
    X6_11  R6_19  1
    X6_11  R6_20  1
    X6_11  R6_21  1
    X6_11  R6_22  1
    X6_11  R6_23  1
    X6_12  R6_0  1
    X6_12  R6_1  1
    X6_12  R6_2  1
    X6_12  R6_3  1
    X6_12  R6_4  1
    X6_12  R6_5  1
    X6_12  R6_6  1
    X6_12  R6_7  1
    X6_12  R6_8  1
    X6_12  R6_9  1
    X6_12  R6_10  1
    X6_12  R6_11  1
    X6_12  R6_12  25
    X6_12  R6_13  1
    X6_12  R6_14  1
    X6_12  R6_15  1
    X6_12  R6_16  1
    X6_12  R6_17  1
    X6_12  R6_18  1
    X6_12  R6_19  1
    X6_12  R6_20  1
    X6_12  R6_21  1
    X6_12  R6_22  1
    X6_12  R6_23  1
    X6_13  R6_0  1
    X6_13  R6_1  1
    X6_13  R6_2  1
    X6_13  R6_3  1
    X6_13  R6_4  1
    X6_13  R6_5  1
    X6_13  R6_6  1
    X6_13  R6_7  1
    X6_13  R6_8  1
    X6_13  R6_9  1
    X6_13  R6_10  1
    X6_13  R6_11  1
    X6_13  R6_12  1
    X6_13  R6_13  25
    X6_13  R6_14  1
    X6_13  R6_15  1
    X6_13  R6_16  1
    X6_13  R6_17  1
    X6_13  R6_18  1
    X6_13  R6_19  1
    X6_13  R6_20  1
    X6_13  R6_21  1
    X6_13  R6_22  1
    X6_13  R6_23  1
    X6_14  R6_0  1
    X6_14  R6_1  1
    X6_14  R6_2  1
    X6_14  R6_3  1
    X6_14  R6_4  1
    X6_14  R6_5  1
    X6_14  R6_6  1
    X6_14  R6_7  1
    X6_14  R6_8  1
    X6_14  R6_9  1
    X6_14  R6_10  1
    X6_14  R6_11  1
    X6_14  R6_12  1
    X6_14  R6_13  1
    X6_14  R6_14  25
    X6_14  R6_15  1
    X6_14  R6_16  1
    X6_14  R6_17  1
    X6_14  R6_18  1
    X6_14  R6_19  1
    X6_14  R6_20  1
    X6_14  R6_21  1
    X6_14  R6_22  1
    X6_14  R6_23  1
    X6_15  R6_0  1
    X6_15  R6_1  1
    X6_15  R6_2  1
    X6_15  R6_3  1
    X6_15  R6_4  1
    X6_15  R6_5  1
    X6_15  R6_6  1
    X6_15  R6_7  1
    X6_15  R6_8  1
    X6_15  R6_9  1
    X6_15  R6_10  1
    X6_15  R6_11  1
    X6_15  R6_12  1
    X6_15  R6_13  1
    X6_15  R6_14  1
    X6_15  R6_15  25
    X6_15  R6_16  1
    X6_15  R6_17  1
    X6_15  R6_18  1
    X6_15  R6_19  1
    X6_15  R6_20  1
    X6_15  R6_21  1
    X6_15  R6_22  1
    X6_15  R6_23  1
    X6_16  R6_0  1
    X6_16  R6_1  1
    X6_16  R6_2  1
    X6_16  R6_3  1
    X6_16  R6_4  1
    X6_16  R6_5  1
    X6_16  R6_6  1
    X6_16  R6_7  1
    X6_16  R6_8  1
    X6_16  R6_9  1
    X6_16  R6_10  1
    X6_16  R6_11  1
    X6_16  R6_12  1
    X6_16  R6_13  1
    X6_16  R6_14  1
    X6_16  R6_15  1
    X6_16  R6_16  25
    X6_16  R6_17  1
    X6_16  R6_18  1
    X6_16  R6_19  1
    X6_16  R6_20  1
    X6_16  R6_21  1
    X6_16  R6_22  1
    X6_16  R6_23  1
    X6_17  R6_0  1
    X6_17  R6_1  1
    X6_17  R6_2  1
    X6_17  R6_3  1
    X6_17  R6_4  1
    X6_17  R6_5  1
    X6_17  R6_6  1
    X6_17  R6_7  1
    X6_17  R6_8  1
    X6_17  R6_9  1
    X6_17  R6_10  1
    X6_17  R6_11  1
    X6_17  R6_12  1
    X6_17  R6_13  1
    X6_17  R6_14  1
    X6_17  R6_15  1
    X6_17  R6_16  1
    X6_17  R6_17  25
    X6_17  R6_18  1
    X6_17  R6_19  1
    X6_17  R6_20  1
    X6_17  R6_21  1
    X6_17  R6_22  1
    X6_17  R6_23  1
    X6_18  R6_0  1
    X6_18  R6_1  1
    X6_18  R6_2  1
    X6_18  R6_3  1
    X6_18  R6_4  1
    X6_18  R6_5  1
    X6_18  R6_6  1
    X6_18  R6_7  1
    X6_18  R6_8  1
    X6_18  R6_9  1
    X6_18  R6_10  1
    X6_18  R6_11  1
    X6_18  R6_12  1
    X6_18  R6_13  1
    X6_18  R6_14  1
    X6_18  R6_15  1
    X6_18  R6_16  1
    X6_18  R6_17  1
    X6_18  R6_18  25
    X6_18  R6_19  1
    X6_18  R6_20  1
    X6_18  R6_21  1
    X6_18  R6_22  1
    X6_18  R6_23  1
    X6_19  R6_0  1
    X6_19  R6_1  1
    X6_19  R6_2  1
    X6_19  R6_3  1
    X6_19  R6_4  1
    X6_19  R6_5  1
    X6_19  R6_6  1
    X6_19  R6_7  1
    X6_19  R6_8  1
    X6_19  R6_9  1
    X6_19  R6_10  1
    X6_19  R6_11  1
    X6_19  R6_12  1
    X6_19  R6_13  1
    X6_19  R6_14  1
    X6_19  R6_15  1
    X6_19  R6_16  1
    X6_19  R6_17  1
    X6_19  R6_18  1
    X6_19  R6_19  25
    X6_19  R6_20  1
    X6_19  R6_21  1
    X6_19  R6_22  1
    X6_19  R6_23  1
    X6_20  R6_0  1
    X6_20  R6_1  1
    X6_20  R6_2  1
    X6_20  R6_3  1
    X6_20  R6_4  1
    X6_20  R6_5  1
    X6_20  R6_6  1
    X6_20  R6_7  1
    X6_20  R6_8  1
    X6_20  R6_9  1
    X6_20  R6_10  1
    X6_20  R6_11  1
    X6_20  R6_12  1
    X6_20  R6_13  1
    X6_20  R6_14  1
    X6_20  R6_15  1
    X6_20  R6_16  1
    X6_20  R6_17  1
    X6_20  R6_18  1
    X6_20  R6_19  1
    X6_20  R6_20  25
    X6_20  R6_21  1
    X6_20  R6_22  1
    X6_20  R6_23  1
    X6_21  R6_0  1
    X6_21  R6_1  1
    X6_21  R6_2  1
    X6_21  R6_3  1
    X6_21  R6_4  1
    X6_21  R6_5  1
    X6_21  R6_6  1
    X6_21  R6_7  1
    X6_21  R6_8  1
    X6_21  R6_9  1
    X6_21  R6_10  1
    X6_21  R6_11  1
    X6_21  R6_12  1
    X6_21  R6_13  1
    X6_21  R6_14  1
    X6_21  R6_15  1
    X6_21  R6_16  1
    X6_21  R6_17  1
    X6_21  R6_18  1
    X6_21  R6_19  1
    X6_21  R6_20  1
    X6_21  R6_21  25
    X6_21  R6_22  1
    X6_21  R6_23  1
    X6_22  R6_0  1
    X6_22  R6_1  1
    X6_22  R6_2  1
    X6_22  R6_3  1
    X6_22  R6_4  1
    X6_22  R6_5  1
    X6_22  R6_6  1
    X6_22  R6_7  1
    X6_22  R6_8  1
    X6_22  R6_9  1
    X6_22  R6_10  1
    X6_22  R6_11  1
    X6_22  R6_12  1
    X6_22  R6_13  1
    X6_22  R6_14  1
    X6_22  R6_15  1
    X6_22  R6_16  1
    X6_22  R6_17  1
    X6_22  R6_18  1
    X6_22  R6_19  1
    X6_22  R6_20  1
    X6_22  R6_21  1
    X6_22  R6_22  25
    X6_22  R6_23  1
    X6_23  R6_0  1
    X6_23  R6_1  1
    X6_23  R6_2  1
    X6_23  R6_3  1
    X6_23  R6_4  1
    X6_23  R6_5  1
    X6_23  R6_6  1
    X6_23  R6_7  1
    X6_23  R6_8  1
    X6_23  R6_9  1
    X6_23  R6_10  1
    X6_23  R6_11  1
    X6_23  R6_12  1
    X6_23  R6_13  1
    X6_23  R6_14  1
    X6_23  R6_15  1
    X6_23  R6_16  1
    X6_23  R6_17  1
    X6_23  R6_18  1
    X6_23  R6_19  1
    X6_23  R6_20  1
    X6_23  R6_21  1
    X6_23  R6_22  1
    X6_23  R6_23  25
    X7_0  R7_0  25
    X7_0  R7_1  1
    X7_0  R7_2  1
    X7_0  R7_3  1
    X7_0  R7_4  1
    X7_0  R7_5  1
    X7_0  R7_6  1
    X7_0  R7_7  1
    X7_0  R7_8  1
    X7_0  R7_9  1
    X7_0  R7_10  1
    X7_0  R7_11  1
    X7_0  R7_12  1
    X7_0  R7_13  1
    X7_0  R7_14  1
    X7_0  R7_15  1
    X7_0  R7_16  1
    X7_0  R7_17  1
    X7_0  R7_18  1
    X7_0  R7_19  1
    X7_0  R7_20  1
    X7_0  R7_21  1
    X7_0  R7_22  1
    X7_0  R7_23  1
    X7_1  R7_0  1
    X7_1  R7_1  25
    X7_1  R7_2  1
    X7_1  R7_3  1
    X7_1  R7_4  1
    X7_1  R7_5  1
    X7_1  R7_6  1
    X7_1  R7_7  1
    X7_1  R7_8  1
    X7_1  R7_9  1
    X7_1  R7_10  1
    X7_1  R7_11  1
    X7_1  R7_12  1
    X7_1  R7_13  1
    X7_1  R7_14  1
    X7_1  R7_15  1
    X7_1  R7_16  1
    X7_1  R7_17  1
    X7_1  R7_18  1
    X7_1  R7_19  1
    X7_1  R7_20  1
    X7_1  R7_21  1
    X7_1  R7_22  1
    X7_1  R7_23  1
    X7_2  R7_0  1
    X7_2  R7_1  1
    X7_2  R7_2  25
    X7_2  R7_3  1
    X7_2  R7_4  1
    X7_2  R7_5  1
    X7_2  R7_6  1
    X7_2  R7_7  1
    X7_2  R7_8  1
    X7_2  R7_9  1
    X7_2  R7_10  1
    X7_2  R7_11  1
    X7_2  R7_12  1
    X7_2  R7_13  1
    X7_2  R7_14  1
    X7_2  R7_15  1
    X7_2  R7_16  1
    X7_2  R7_17  1
    X7_2  R7_18  1
    X7_2  R7_19  1
    X7_2  R7_20  1
    X7_2  R7_21  1
    X7_2  R7_22  1
    X7_2  R7_23  1
    X7_3  R7_0  1
    X7_3  R7_1  1
    X7_3  R7_2  1
    X7_3  R7_3  25
    X7_3  R7_4  1
    X7_3  R7_5  1
    X7_3  R7_6  1
    X7_3  R7_7  1
    X7_3  R7_8  1
    X7_3  R7_9  1
    X7_3  R7_10  1
    X7_3  R7_11  1
    X7_3  R7_12  1
    X7_3  R7_13  1
    X7_3  R7_14  1
    X7_3  R7_15  1
    X7_3  R7_16  1
    X7_3  R7_17  1
    X7_3  R7_18  1
    X7_3  R7_19  1
    X7_3  R7_20  1
    X7_3  R7_21  1
    X7_3  R7_22  1
    X7_3  R7_23  1
    X7_4  R7_0  1
    X7_4  R7_1  1
    X7_4  R7_2  1
    X7_4  R7_3  1
    X7_4  R7_4  25
    X7_4  R7_5  1
    X7_4  R7_6  1
    X7_4  R7_7  1
    X7_4  R7_8  1
    X7_4  R7_9  1
    X7_4  R7_10  1
    X7_4  R7_11  1
    X7_4  R7_12  1
    X7_4  R7_13  1
    X7_4  R7_14  1
    X7_4  R7_15  1
    X7_4  R7_16  1
    X7_4  R7_17  1
    X7_4  R7_18  1
    X7_4  R7_19  1
    X7_4  R7_20  1
    X7_4  R7_21  1
    X7_4  R7_22  1
    X7_4  R7_23  1
    X7_5  R7_0  1
    X7_5  R7_1  1
    X7_5  R7_2  1
    X7_5  R7_3  1
    X7_5  R7_4  1
    X7_5  R7_5  25
    X7_5  R7_6  1
    X7_5  R7_7  1
    X7_5  R7_8  1
    X7_5  R7_9  1
    X7_5  R7_10  1
    X7_5  R7_11  1
    X7_5  R7_12  1
    X7_5  R7_13  1
    X7_5  R7_14  1
    X7_5  R7_15  1
    X7_5  R7_16  1
    X7_5  R7_17  1
    X7_5  R7_18  1
    X7_5  R7_19  1
    X7_5  R7_20  1
    X7_5  R7_21  1
    X7_5  R7_22  1
    X7_5  R7_23  1
    X7_6  R7_0  1
    X7_6  R7_1  1
    X7_6  R7_2  1
    X7_6  R7_3  1
    X7_6  R7_4  1
    X7_6  R7_5  1
    X7_6  R7_6  25
    X7_6  R7_7  1
    X7_6  R7_8  1
    X7_6  R7_9  1
    X7_6  R7_10  1
    X7_6  R7_11  1
    X7_6  R7_12  1
    X7_6  R7_13  1
    X7_6  R7_14  1
    X7_6  R7_15  1
    X7_6  R7_16  1
    X7_6  R7_17  1
    X7_6  R7_18  1
    X7_6  R7_19  1
    X7_6  R7_20  1
    X7_6  R7_21  1
    X7_6  R7_22  1
    X7_6  R7_23  1
    X7_7  R7_0  1
    X7_7  R7_1  1
    X7_7  R7_2  1
    X7_7  R7_3  1
    X7_7  R7_4  1
    X7_7  R7_5  1
    X7_7  R7_6  1
    X7_7  R7_7  25
    X7_7  R7_8  1
    X7_7  R7_9  1
    X7_7  R7_10  1
    X7_7  R7_11  1
    X7_7  R7_12  1
    X7_7  R7_13  1
    X7_7  R7_14  1
    X7_7  R7_15  1
    X7_7  R7_16  1
    X7_7  R7_17  1
    X7_7  R7_18  1
    X7_7  R7_19  1
    X7_7  R7_20  1
    X7_7  R7_21  1
    X7_7  R7_22  1
    X7_7  R7_23  1
    X7_8  R7_0  1
    X7_8  R7_1  1
    X7_8  R7_2  1
    X7_8  R7_3  1
    X7_8  R7_4  1
    X7_8  R7_5  1
    X7_8  R7_6  1
    X7_8  R7_7  1
    X7_8  R7_8  25
    X7_8  R7_9  1
    X7_8  R7_10  1
    X7_8  R7_11  1
    X7_8  R7_12  1
    X7_8  R7_13  1
    X7_8  R7_14  1
    X7_8  R7_15  1
    X7_8  R7_16  1
    X7_8  R7_17  1
    X7_8  R7_18  1
    X7_8  R7_19  1
    X7_8  R7_20  1
    X7_8  R7_21  1
    X7_8  R7_22  1
    X7_8  R7_23  1
    X7_9  R7_0  1
    X7_9  R7_1  1
    X7_9  R7_2  1
    X7_9  R7_3  1
    X7_9  R7_4  1
    X7_9  R7_5  1
    X7_9  R7_6  1
    X7_9  R7_7  1
    X7_9  R7_8  1
    X7_9  R7_9  25
    X7_9  R7_10  1
    X7_9  R7_11  1
    X7_9  R7_12  1
    X7_9  R7_13  1
    X7_9  R7_14  1
    X7_9  R7_15  1
    X7_9  R7_16  1
    X7_9  R7_17  1
    X7_9  R7_18  1
    X7_9  R7_19  1
    X7_9  R7_20  1
    X7_9  R7_21  1
    X7_9  R7_22  1
    X7_9  R7_23  1
    X7_10  R7_0  1
    X7_10  R7_1  1
    X7_10  R7_2  1
    X7_10  R7_3  1
    X7_10  R7_4  1
    X7_10  R7_5  1
    X7_10  R7_6  1
    X7_10  R7_7  1
    X7_10  R7_8  1
    X7_10  R7_9  1
    X7_10  R7_10  25
    X7_10  R7_11  1
    X7_10  R7_12  1
    X7_10  R7_13  1
    X7_10  R7_14  1
    X7_10  R7_15  1
    X7_10  R7_16  1
    X7_10  R7_17  1
    X7_10  R7_18  1
    X7_10  R7_19  1
    X7_10  R7_20  1
    X7_10  R7_21  1
    X7_10  R7_22  1
    X7_10  R7_23  1
    X7_11  R7_0  1
    X7_11  R7_1  1
    X7_11  R7_2  1
    X7_11  R7_3  1
    X7_11  R7_4  1
    X7_11  R7_5  1
    X7_11  R7_6  1
    X7_11  R7_7  1
    X7_11  R7_8  1
    X7_11  R7_9  1
    X7_11  R7_10  1
    X7_11  R7_11  25
    X7_11  R7_12  1
    X7_11  R7_13  1
    X7_11  R7_14  1
    X7_11  R7_15  1
    X7_11  R7_16  1
    X7_11  R7_17  1
    X7_11  R7_18  1
    X7_11  R7_19  1
    X7_11  R7_20  1
    X7_11  R7_21  1
    X7_11  R7_22  1
    X7_11  R7_23  1
    X7_12  R7_0  1
    X7_12  R7_1  1
    X7_12  R7_2  1
    X7_12  R7_3  1
    X7_12  R7_4  1
    X7_12  R7_5  1
    X7_12  R7_6  1
    X7_12  R7_7  1
    X7_12  R7_8  1
    X7_12  R7_9  1
    X7_12  R7_10  1
    X7_12  R7_11  1
    X7_12  R7_12  25
    X7_12  R7_13  1
    X7_12  R7_14  1
    X7_12  R7_15  1
    X7_12  R7_16  1
    X7_12  R7_17  1
    X7_12  R7_18  1
    X7_12  R7_19  1
    X7_12  R7_20  1
    X7_12  R7_21  1
    X7_12  R7_22  1
    X7_12  R7_23  1
    X7_13  R7_0  1
    X7_13  R7_1  1
    X7_13  R7_2  1
    X7_13  R7_3  1
    X7_13  R7_4  1
    X7_13  R7_5  1
    X7_13  R7_6  1
    X7_13  R7_7  1
    X7_13  R7_8  1
    X7_13  R7_9  1
    X7_13  R7_10  1
    X7_13  R7_11  1
    X7_13  R7_12  1
    X7_13  R7_13  25
    X7_13  R7_14  1
    X7_13  R7_15  1
    X7_13  R7_16  1
    X7_13  R7_17  1
    X7_13  R7_18  1
    X7_13  R7_19  1
    X7_13  R7_20  1
    X7_13  R7_21  1
    X7_13  R7_22  1
    X7_13  R7_23  1
    X7_14  R7_0  1
    X7_14  R7_1  1
    X7_14  R7_2  1
    X7_14  R7_3  1
    X7_14  R7_4  1
    X7_14  R7_5  1
    X7_14  R7_6  1
    X7_14  R7_7  1
    X7_14  R7_8  1
    X7_14  R7_9  1
    X7_14  R7_10  1
    X7_14  R7_11  1
    X7_14  R7_12  1
    X7_14  R7_13  1
    X7_14  R7_14  25
    X7_14  R7_15  1
    X7_14  R7_16  1
    X7_14  R7_17  1
    X7_14  R7_18  1
    X7_14  R7_19  1
    X7_14  R7_20  1
    X7_14  R7_21  1
    X7_14  R7_22  1
    X7_14  R7_23  1
    X7_15  R7_0  1
    X7_15  R7_1  1
    X7_15  R7_2  1
    X7_15  R7_3  1
    X7_15  R7_4  1
    X7_15  R7_5  1
    X7_15  R7_6  1
    X7_15  R7_7  1
    X7_15  R7_8  1
    X7_15  R7_9  1
    X7_15  R7_10  1
    X7_15  R7_11  1
    X7_15  R7_12  1
    X7_15  R7_13  1
    X7_15  R7_14  1
    X7_15  R7_15  25
    X7_15  R7_16  1
    X7_15  R7_17  1
    X7_15  R7_18  1
    X7_15  R7_19  1
    X7_15  R7_20  1
    X7_15  R7_21  1
    X7_15  R7_22  1
    X7_15  R7_23  1
    X7_16  R7_0  1
    X7_16  R7_1  1
    X7_16  R7_2  1
    X7_16  R7_3  1
    X7_16  R7_4  1
    X7_16  R7_5  1
    X7_16  R7_6  1
    X7_16  R7_7  1
    X7_16  R7_8  1
    X7_16  R7_9  1
    X7_16  R7_10  1
    X7_16  R7_11  1
    X7_16  R7_12  1
    X7_16  R7_13  1
    X7_16  R7_14  1
    X7_16  R7_15  1
    X7_16  R7_16  25
    X7_16  R7_17  1
    X7_16  R7_18  1
    X7_16  R7_19  1
    X7_16  R7_20  1
    X7_16  R7_21  1
    X7_16  R7_22  1
    X7_16  R7_23  1
    X7_17  R7_0  1
    X7_17  R7_1  1
    X7_17  R7_2  1
    X7_17  R7_3  1
    X7_17  R7_4  1
    X7_17  R7_5  1
    X7_17  R7_6  1
    X7_17  R7_7  1
    X7_17  R7_8  1
    X7_17  R7_9  1
    X7_17  R7_10  1
    X7_17  R7_11  1
    X7_17  R7_12  1
    X7_17  R7_13  1
    X7_17  R7_14  1
    X7_17  R7_15  1
    X7_17  R7_16  1
    X7_17  R7_17  25
    X7_17  R7_18  1
    X7_17  R7_19  1
    X7_17  R7_20  1
    X7_17  R7_21  1
    X7_17  R7_22  1
    X7_17  R7_23  1
    X7_18  R7_0  1
    X7_18  R7_1  1
    X7_18  R7_2  1
    X7_18  R7_3  1
    X7_18  R7_4  1
    X7_18  R7_5  1
    X7_18  R7_6  1
    X7_18  R7_7  1
    X7_18  R7_8  1
    X7_18  R7_9  1
    X7_18  R7_10  1
    X7_18  R7_11  1
    X7_18  R7_12  1
    X7_18  R7_13  1
    X7_18  R7_14  1
    X7_18  R7_15  1
    X7_18  R7_16  1
    X7_18  R7_17  1
    X7_18  R7_18  25
    X7_18  R7_19  1
    X7_18  R7_20  1
    X7_18  R7_21  1
    X7_18  R7_22  1
    X7_18  R7_23  1
    X7_19  R7_0  1
    X7_19  R7_1  1
    X7_19  R7_2  1
    X7_19  R7_3  1
    X7_19  R7_4  1
    X7_19  R7_5  1
    X7_19  R7_6  1
    X7_19  R7_7  1
    X7_19  R7_8  1
    X7_19  R7_9  1
    X7_19  R7_10  1
    X7_19  R7_11  1
    X7_19  R7_12  1
    X7_19  R7_13  1
    X7_19  R7_14  1
    X7_19  R7_15  1
    X7_19  R7_16  1
    X7_19  R7_17  1
    X7_19  R7_18  1
    X7_19  R7_19  25
    X7_19  R7_20  1
    X7_19  R7_21  1
    X7_19  R7_22  1
    X7_19  R7_23  1
    X7_20  R7_0  1
    X7_20  R7_1  1
    X7_20  R7_2  1
    X7_20  R7_3  1
    X7_20  R7_4  1
    X7_20  R7_5  1
    X7_20  R7_6  1
    X7_20  R7_7  1
    X7_20  R7_8  1
    X7_20  R7_9  1
    X7_20  R7_10  1
    X7_20  R7_11  1
    X7_20  R7_12  1
    X7_20  R7_13  1
    X7_20  R7_14  1
    X7_20  R7_15  1
    X7_20  R7_16  1
    X7_20  R7_17  1
    X7_20  R7_18  1
    X7_20  R7_19  1
    X7_20  R7_20  25
    X7_20  R7_21  1
    X7_20  R7_22  1
    X7_20  R7_23  1
    X7_21  R7_0  1
    X7_21  R7_1  1
    X7_21  R7_2  1
    X7_21  R7_3  1
    X7_21  R7_4  1
    X7_21  R7_5  1
    X7_21  R7_6  1
    X7_21  R7_7  1
    X7_21  R7_8  1
    X7_21  R7_9  1
    X7_21  R7_10  1
    X7_21  R7_11  1
    X7_21  R7_12  1
    X7_21  R7_13  1
    X7_21  R7_14  1
    X7_21  R7_15  1
    X7_21  R7_16  1
    X7_21  R7_17  1
    X7_21  R7_18  1
    X7_21  R7_19  1
    X7_21  R7_20  1
    X7_21  R7_21  25
    X7_21  R7_22  1
    X7_21  R7_23  1
    X7_22  R7_0  1
    X7_22  R7_1  1
    X7_22  R7_2  1
    X7_22  R7_3  1
    X7_22  R7_4  1
    X7_22  R7_5  1
    X7_22  R7_6  1
    X7_22  R7_7  1
    X7_22  R7_8  1
    X7_22  R7_9  1
    X7_22  R7_10  1
    X7_22  R7_11  1
    X7_22  R7_12  1
    X7_22  R7_13  1
    X7_22  R7_14  1
    X7_22  R7_15  1
    X7_22  R7_16  1
    X7_22  R7_17  1
    X7_22  R7_18  1
    X7_22  R7_19  1
    X7_22  R7_20  1
    X7_22  R7_21  1
    X7_22  R7_22  25
    X7_22  R7_23  1
    X7_23  R7_0  1
    X7_23  R7_1  1
    X7_23  R7_2  1
    X7_23  R7_3  1
    X7_23  R7_4  1
    X7_23  R7_5  1
    X7_23  R7_6  1
    X7_23  R7_7  1
    X7_23  R7_8  1
    X7_23  R7_9  1
    X7_23  R7_10  1
    X7_23  R7_11  1
    X7_23  R7_12  1
    X7_23  R7_13  1
    X7_23  R7_14  1
    X7_23  R7_15  1
    X7_23  R7_16  1
    X7_23  R7_17  1
    X7_23  R7_18  1
    X7_23  R7_19  1
    X7_23  R7_20  1
    X7_23  R7_21  1
    X7_23  R7_22  1
    X7_23  R7_23  25
RHS
    RHS  R0_0  48
    RHS  R0_1  48
    RHS  R0_2  48
    RHS  R0_3  48
    RHS  R0_4  48
    RHS  R0_5  48
    RHS  R0_6  48
    RHS  R0_7  48
    RHS  R0_8  48
    RHS  R0_9  48
    RHS  R0_10  48
    RHS  R0_11  48
    RHS  R0_12  48
    RHS  R0_13  48
    RHS  R0_14  48
    RHS  R0_15  48
    RHS  R0_16  48
    RHS  R0_17  48
    RHS  R0_18  48
    RHS  R0_19  48
    RHS  R0_20  48
    RHS  R0_21  48
    RHS  R0_22  48
    RHS  R0_23  48
    RHS  R1_0  48
    RHS  R1_1  48
    RHS  R1_2  48
    RHS  R1_3  48
    RHS  R1_4  48
    RHS  R1_5  48
    RHS  R1_6  48
    RHS  R1_7  48
    RHS  R1_8  48
    RHS  R1_9  48
    RHS  R1_10  48
    RHS  R1_11  48
    RHS  R1_12  48
    RHS  R1_13  48
    RHS  R1_14  48
    RHS  R1_15  48
    RHS  R1_16  48
    RHS  R1_17  48
    RHS  R1_18  48
    RHS  R1_19  48
    RHS  R1_20  48
    RHS  R1_21  48
    RHS  R1_22  48
    RHS  R1_23  48
    RHS  R2_0  48
    RHS  R2_1  48
    RHS  R2_2  48
    RHS  R2_3  48
    RHS  R2_4  48
    RHS  R2_5  48
    RHS  R2_6  48
    RHS  R2_7  48
    RHS  R2_8  48
    RHS  R2_9  48
    RHS  R2_10  48
    RHS  R2_11  48
    RHS  R2_12  48
    RHS  R2_13  48
    RHS  R2_14  48
    RHS  R2_15  48
    RHS  R2_16  48
    RHS  R2_17  48
    RHS  R2_18  48
    RHS  R2_19  48
    RHS  R2_20  48
    RHS  R2_21  48
    RHS  R2_22  48
    RHS  R2_23  48
    RHS  R3_0  48
    RHS  R3_1  48
    RHS  R3_2  48
    RHS  R3_3  48
    RHS  R3_4  48
    RHS  R3_5  48
    RHS  R3_6  48
    RHS  R3_7  48
    RHS  R3_8  48
    RHS  R3_9  48
    RHS  R3_10  48
    RHS  R3_11  48
    RHS  R3_12  48
    RHS  R3_13  48
    RHS  R3_14  48
    RHS  R3_15  48
    RHS  R3_16  48
    RHS  R3_17  48
    RHS  R3_18  48
    RHS  R3_19  48
    RHS  R3_20  48
    RHS  R3_21  48
    RHS  R3_22  48
    RHS  R3_23  48
    RHS  R4_0  48
    RHS  R4_1  48
    RHS  R4_2  48
    RHS  R4_3  48
    RHS  R4_4  48
    RHS  R4_5  48
    RHS  R4_6  48
    RHS  R4_7  48
    RHS  R4_8  48
    RHS  R4_9  48
    RHS  R4_10  48
    RHS  R4_11  48
    RHS  R4_12  48
    RHS  R4_13  48
    RHS  R4_14  48
    RHS  R4_15  48
    RHS  R4_16  48
    RHS  R4_17  48
    RHS  R4_18  48
    RHS  R4_19  48
    RHS  R4_20  48
    RHS  R4_21  48
    RHS  R4_22  48
    RHS  R4_23  48
    RHS  R5_0  48
    RHS  R5_1  48
    RHS  R5_2  48
    RHS  R5_3  48
    RHS  R5_4  48
    RHS  R5_5  48
    RHS  R5_6  48
    RHS  R5_7  48
    RHS  R5_8  48
    RHS  R5_9  48
    RHS  R5_10  48
    RHS  R5_11  48
    RHS  R5_12  48
    RHS  R5_13  48
    RHS  R5_14  48
    RHS  R5_15  48
    RHS  R5_16  48
    RHS  R5_17  48
    RHS  R5_18  48
    RHS  R5_19  48
    RHS  R5_20  48
    RHS  R5_21  48
    RHS  R5_22  48
    RHS  R5_23  48
    RHS  R6_0  48
    RHS  R6_1  48
    RHS  R6_2  48
    RHS  R6_3  48
    RHS  R6_4  48
    RHS  R6_5  48
    RHS  R6_6  48
    RHS  R6_7  48
    RHS  R6_8  48
    RHS  R6_9  48
    RHS  R6_10  48
    RHS  R6_11  48
    RHS  R6_12  48
    RHS  R6_13  48
    RHS  R6_14  48
    RHS  R6_15  48
    RHS  R6_16  48
    RHS  R6_17  48
    RHS  R6_18  48
    RHS  R6_19  48
    RHS  R6_20  48
    RHS  R6_21  48
    RHS  R6_22  48
    RHS  R6_23  48
    RHS  R7_0  48
    RHS  R7_1  48
    RHS  R7_2  48
    RHS  R7_3  48
    RHS  R7_4  48
    RHS  R7_5  48
    RHS  R7_6  48
    RHS  R7_7  48
    RHS  R7_8  48
    RHS  R7_9  48
    RHS  R7_10  48
    RHS  R7_11  48
    RHS  R7_12  48
    RHS  R7_13  48
    RHS  R7_14  48
    RHS  R7_15  48
    RHS  R7_16  48
    RHS  R7_17  48
    RHS  R7_18  48
    RHS  R7_19  48
    RHS  R7_20  48
    RHS  R7_21  48
    RHS  R7_22  48
    RHS  R7_23  48
BOUNDS
 UP BND  X0_0  2
 UP BND  X0_1  2
 UP BND  X0_2  2
 UP BND  X0_3  2
 UP BND  X0_4  2
 UP BND  X0_5  2
 UP BND  X0_6  2
 UP BND  X0_7  2
 UP BND  X0_8  2
 UP BND  X0_9  2
 UP BND  X0_10  2
 UP BND  X0_11  2
 UP BND  X0_12  2
 UP BND  X0_13  2
 UP BND  X0_14  2
 UP BND  X0_15  2
 UP BND  X0_16  2
 UP BND  X0_17  2
 UP BND  X0_18  2
 UP BND  X0_19  2
 UP BND  X0_20  2
 UP BND  X0_21  2
 UP BND  X0_22  2
 UP BND  X0_23  2
 UP BND  X1_0  2
 UP BND  X1_1  2
 UP BND  X1_2  2
 UP BND  X1_3  2
 UP BND  X1_4  2
 UP BND  X1_5  2
 UP BND  X1_6  2
 UP BND  X1_7  2
 UP BND  X1_8  2
 UP BND  X1_9  2
 UP BND  X1_10  2
 UP BND  X1_11  2
 UP BND  X1_12  2
 UP BND  X1_13  2
 UP BND  X1_14  2
 UP BND  X1_15  2
 UP BND  X1_16  2
 UP BND  X1_17  2
 UP BND  X1_18  2
 UP BND  X1_19  2
 UP BND  X1_20  2
 UP BND  X1_21  2
 UP BND  X1_22  2
 UP BND  X1_23  2
 UP BND  X2_0  2
 UP BND  X2_1  2
 UP BND  X2_2  2
 UP BND  X2_3  2
 UP BND  X2_4  2
 UP BND  X2_5  2
 UP BND  X2_6  2
 UP BND  X2_7  2
 UP BND  X2_8  2
 UP BND  X2_9  2
 UP BND  X2_10  2
 UP BND  X2_11  2
 UP BND  X2_12  2
 UP BND  X2_13  2
 UP BND  X2_14  2
 UP BND  X2_15  2
 UP BND  X2_16  2
 UP BND  X2_17  2
 UP BND  X2_18  2
 UP BND  X2_19  2
 UP BND  X2_20  2
 UP BND  X2_21  2
 UP BND  X2_22  2
 UP BND  X2_23  2
 UP BND  X3_0  2
 UP BND  X3_1  2
 UP BND  X3_2  2
 UP BND  X3_3  2
 UP BND  X3_4  2
 UP BND  X3_5  2
 UP BND  X3_6  2
 UP BND  X3_7  2
 UP BND  X3_8  2
 UP BND  X3_9  2
 UP BND  X3_10  2
 UP BND  X3_11  2
 UP BND  X3_12  2
 UP BND  X3_13  2
 UP BND  X3_14  2
 UP BND  X3_15  2
 UP BND  X3_16  2
 UP BND  X3_17  2
 UP BND  X3_18  2
 UP BND  X3_19  2
 UP BND  X3_20  2
 UP BND  X3_21  2
 UP BND  X3_22  2
 UP BND  X3_23  2
 UP BND  X4_0  2
 UP BND  X4_1  2
 UP BND  X4_2  2
 UP BND  X4_3  2
 UP BND  X4_4  2
 UP BND  X4_5  2
 UP BND  X4_6  2
 UP BND  X4_7  2
 UP BND  X4_8  2
 UP BND  X4_9  2
 UP BND  X4_10  2
 UP BND  X4_11  2
 UP BND  X4_12  2
 UP BND  X4_13  2
 UP BND  X4_14  2
 UP BND  X4_15  2
 UP BND  X4_16  2
 UP BND  X4_17  2
 UP BND  X4_18  2
 UP BND  X4_19  2
 UP BND  X4_20  2
 UP BND  X4_21  2
 UP BND  X4_22  2
 UP BND  X4_23  2
 UP BND  X5_0  2
 UP BND  X5_1  2
 UP BND  X5_2  2
 UP BND  X5_3  2
 UP BND  X5_4  2
 UP BND  X5_5  2
 UP BND  X5_6  2
 UP BND  X5_7  2
 UP BND  X5_8  2
 UP BND  X5_9  2
 UP BND  X5_10  2
 UP BND  X5_11  2
 UP BND  X5_12  2
 UP BND  X5_13  2
 UP BND  X5_14  2
 UP BND  X5_15  2
 UP BND  X5_16  2
 UP BND  X5_17  2
 UP BND  X5_18  2
 UP BND  X5_19  2
 UP BND  X5_20  2
 UP BND  X5_21  2
 UP BND  X5_22  2
 UP BND  X5_23  2
 UP BND  X6_0  2
 UP BND  X6_1  2
 UP BND  X6_2  2
 UP BND  X6_3  2
 UP BND  X6_4  2
 UP BND  X6_5  2
 UP BND  X6_6  2
 UP BND  X6_7  2
 UP BND  X6_8  2
 UP BND  X6_9  2
 UP BND  X6_10  2
 UP BND  X6_11  2
 UP BND  X6_12  2
 UP BND  X6_13  2
 UP BND  X6_14  2
 UP BND  X6_15  2
 UP BND  X6_16  2
 UP BND  X6_17  2
 UP BND  X6_18  2
 UP BND  X6_19  2
 UP BND  X6_20  2
 UP BND  X6_21  2
 UP BND  X6_22  2
 UP BND  X6_23  2
 UP BND  X7_0  2
 UP BND  X7_1  2
 UP BND  X7_2  2
 UP BND  X7_3  2
 UP BND  X7_4  2
 UP BND  X7_5  2
 UP BND  X7_6  2
 UP BND  X7_7  2
 UP BND  X7_8  2
 UP BND  X7_9  2
 UP BND  X7_10  2
 UP BND  X7_11  2
 UP BND  X7_12  2
 UP BND  X7_13  2
 UP BND  X7_14  2
 UP BND  X7_15  2
 UP BND  X7_16  2
 UP BND  X7_17  2
 UP BND  X7_18  2
 UP BND  X7_19  2
 UP BND  X7_20  2
 UP BND  X7_21  2
 UP BND  X7_22  2
 UP BND  X7_23  2
ENDATA
