NAME COMPONENTS
ROWS
 N  COST
 E  R0_0
 E  R0_1
 E  R0_2
 E  R0_3
 E  R0_4
 E  R0_5
 E  R0_6
 E  R0_7
 E  R0_8
 E  R0_9
 E  R0_10
 E  R0_11
 E  R1_0
 E  R1_1
 E  R1_2
 E  R1_3
 E  R1_4
 E  R1_5
 E  R1_6
 E  R1_7
 E  R1_8
 E  R1_9
 E  R1_10
 E  R1_11
COLUMNS
    X0_0  R0_0  13
    X0_0  R0_1  1
    X0_0  R0_2  1
    X0_0  R0_3  1
    X0_0  R0_4  1
    X0_0  R0_5  1
    X0_0  R0_6  1
    X0_0  R0_7  1
    X0_0  R0_8  1
    X0_0  R0_9  1
    X0_0  R0_10  1
    X0_0  R0_11  1
    X0_1  R0_0  1
    X0_1  R0_1  13
    X0_1  R0_2  1
    X0_1  R0_3  1
    X0_1  R0_4  1
    X0_1  R0_5  1
    X0_1  R0_6  1
    X0_1  R0_7  1
    X0_1  R0_8  1
    X0_1  R0_9  1
    X0_1  R0_10  1
    X0_1  R0_11  1
    X0_2  R0_0  1
    X0_2  R0_1  1
    X0_2  R0_2  13
    X0_2  R0_3  1
    X0_2  R0_4  1
    X0_2  R0_5  1
    X0_2  R0_6  1
    X0_2  R0_7  1
    X0_2  R0_8  1
    X0_2  R0_9  1
    X0_2  R0_10  1
    X0_2  R0_11  1
    X0_3  R0_0  1
    X0_3  R0_1  1
    X0_3  R0_2  1
    X0_3  R0_3  13
    X0_3  R0_4  1
    X0_3  R0_5  1
    X0_3  R0_6  1
    X0_3  R0_7  1
    X0_3  R0_8  1
    X0_3  R0_9  1
    X0_3  R0_10  1
    X0_3  R0_11  1
    X0_4  R0_0  1
    X0_4  R0_1  1
    X0_4  R0_2  1
    X0_4  R0_3  1
    X0_4  R0_4  13
    X0_4  R0_5  1
    X0_4  R0_6  1
    X0_4  R0_7  1
    X0_4  R0_8  1
    X0_4  R0_9  1
    X0_4  R0_10  1
    X0_4  R0_11  1
    X0_5  R0_0  1
    X0_5  R0_1  1
    X0_5  R0_2  1
    X0_5  R0_3  1
    X0_5  R0_4  1
    X0_5  R0_5  13
    X0_5  R0_6  1
    X0_5  R0_7  1
    X0_5  R0_8  1
    X0_5  R0_9  1
    X0_5  R0_10  1
    X0_5  R0_11  1
    X0_6  R0_0  1
    X0_6  R0_1  1
    X0_6  R0_2  1
    X0_6  R0_3  1
    X0_6  R0_4  1
    X0_6  R0_5  1
    X0_6  R0_6  13
    X0_6  R0_7  1
    X0_6  R0_8  1
    X0_6  R0_9  1
    X0_6  R0_10  1
    X0_6  R0_11  1
    X0_7  R0_0  1
    X0_7  R0_1  1
    X0_7  R0_2  1
    X0_7  R0_3  1
    X0_7  R0_4  1
    X0_7  R0_5  1
    X0_7  R0_6  1
    X0_7  R0_7  13
    X0_7  R0_8  1
    X0_7  R0_9  1
    X0_7  R0_10  1
    X0_7  R0_11  1
    X0_8  R0_0  1
    X0_8  R0_1  1
    X0_8  R0_2  1
    X0_8  R0_3  1
    X0_8  R0_4  1
    X0_8  R0_5  1
    X0_8  R0_6  1
    X0_8  R0_7  1
    X0_8  R0_8  13
    X0_8  R0_9  1
    X0_8  R0_10  1
    X0_8  R0_11  1
    X0_9  R0_0  1
    X0_9  R0_1  1
    X0_9  R0_2  1
    X0_9  R0_3  1
    X0_9  R0_4  1
    X0_9  R0_5  1
    X0_9  R0_6  1
    X0_9  R0_7  1
    X0_9  R0_8  1
    X0_9  R0_9  13
    X0_9  R0_10  1
    X0_9  R0_11  1
    X0_10  R0_0  1
    X0_10  R0_1  1
    X0_10  R0_2  1
    X0_10  R0_3  1
    X0_10  R0_4  1
    X0_10  R0_5  1
    X0_10  R0_6  1
    X0_10  R0_7  1
    X0_10  R0_8  1
    X0_10  R0_9  1
    X0_10  R0_10  13
    X0_10  R0_11  1
    X0_11  R0_0  1
    X0_11  R0_1  1
    X0_11  R0_2  1
    X0_11  R0_3  1
    X0_11  R0_4  1
    X0_11  R0_5  1
    X0_11  R0_6  1
    X0_11  R0_7  1
    X0_11  R0_8  1
    X0_11  R0_9  1
    X0_11  R0_10  1
    X0_11  R0_11  13
    X1_0  R1_0  13
    X1_0  R1_1  1
    X1_0  R1_2  1
    X1_0  R1_3  1
    X1_0  R1_4  1
    X1_0  R1_5  1
    X1_0  R1_6  1
    X1_0  R1_7  1
    X1_0  R1_8  1
    X1_0  R1_9  1
    X1_0  R1_10  1
    X1_0  R1_11  1
    X1_1  R1_0  1
    X1_1  R1_1  13
    X1_1  R1_2  1
    X1_1  R1_3  1
    X1_1  R1_4  1
    X1_1  R1_5  1
    X1_1  R1_6  1
    X1_1  R1_7  1
    X1_1  R1_8  1
    X1_1  R1_9  1
    X1_1  R1_10  1
    X1_1  R1_11  1
    X1_2  R1_0  1
    X1_2  R1_1  1
    X1_2  R1_2  13
    X1_2  R1_3  1
    X1_2  R1_4  1
    X1_2  R1_5  1
    X1_2  R1_6  1
    X1_2  R1_7  1
    X1_2  R1_8  1
    X1_2  R1_9  1
    X1_2  R1_10  1
    X1_2  R1_11  1
    X1_3  R1_0  1
    X1_3  R1_1  1
    X1_3  R1_2  1
    X1_3  R1_3  13
    X1_3  R1_4  1
    X1_3  R1_5  1
    X1_3  R1_6  1
    X1_3  R1_7  1
    X1_3  R1_8  1
    X1_3  R1_9  1
    X1_3  R1_10  1
    X1_3  R1_11  1
    X1_4  R1_0  1
    X1_4  R1_1  1
    X1_4  R1_2  1
    X1_4  R1_3  1
    X1_4  R1_4  13
    X1_4  R1_5  1
    X1_4  R1_6  1
    X1_4  R1_7  1
    X1_4  R1_8  1
    X1_4  R1_9  1
    X1_4  R1_10  1
    X1_4  R1_11  1
    X1_5  R1_0  1
    X1_5  R1_1  1
    X1_5  R1_2  1
    X1_5  R1_3  1
    X1_5  R1_4  1
    X1_5  R1_5  13
    X1_5  R1_6  1
    X1_5  R1_7  1
    X1_5  R1_8  1
    X1_5  R1_9  1
    X1_5  R1_10  1
    X1_5  R1_11  1
    X1_6  R1_0  1
    X1_6  R1_1  1
    X1_6  R1_2  1
    X1_6  R1_3  1
    X1_6  R1_4  1
    X1_6  R1_5  1
    X1_6  R1_6  13
    X1_6  R1_7  1
    X1_6  R1_8  1
    X1_6  R1_9  1
    X1_6  R1_10  1
    X1_6  R1_11  1
    X1_7  R1_0  1
    X1_7  R1_1  1
    X1_7  R1_2  1
    X1_7  R1_3  1
    X1_7  R1_4  1
    X1_7  R1_5  1
    X1_7  R1_6  1
    X1_7  R1_7  13
    X1_7  R1_8  1
    X1_7  R1_9  1
    X1_7  R1_10  1
    X1_7  R1_11  1
    X1_8  R1_0  1
    X1_8  R1_1  1
    X1_8  R1_2  1
    X1_8  R1_3  1
    X1_8  R1_4  1
    X1_8  R1_5  1
    X1_8  R1_6  1
    X1_8  R1_7  1
    X1_8  R1_8  13
    X1_8  R1_9  1
    X1_8  R1_10  1
    X1_8  R1_11  1
    X1_9  R1_0  1
    X1_9  R1_1  1
    X1_9  R1_2  1
    X1_9  R1_3  1
    X1_9  R1_4  1
    X1_9  R1_5  1
    X1_9  R1_6  1
    X1_9  R1_7  1
    X1_9  R1_8  1
    X1_9  R1_9  13
    X1_9  R1_10  1
    X1_9  R1_11  1
    X1_10  R1_0  1
    X1_10  R1_1  1
    X1_10  R1_2  1
    X1_10  R1_3  1
    X1_10  R1_4  1
    X1_10  R1_5  1
    X1_10  R1_6  1
    X1_10  R1_7  1
    X1_10  R1_8  1
    X1_10  R1_9  1
    X1_10  R1_10  13
    X1_10  R1_11  1
    X1_11  R1_0  1
    X1_11  R1_1  1
    X1_11  R1_2  1
    X1_11  R1_3  1
    X1_11  R1_4  1
    X1_11  R1_5  1
    X1_11  R1_6  1
    X1_11  R1_7  1
    X1_11  R1_8  1
    X1_11  R1_9  1
    X1_11  R1_10  1
    X1_11  R1_11  13
RHS
    RHS  R0_0  24
    RHS  R0_1  24
    RHS  R0_2  24
    RHS  R0_3  24
    RHS  R0_4  24
    RHS  R0_5  24
    RHS  R0_6  24
    RHS  R0_7  24
    RHS  R0_8  24
    RHS  R0_9  24
    RHS  R0_10  24
    RHS  R0_11  24
    RHS  R1_0  24
    RHS  R1_1  24
    RHS  R1_2  24
    RHS  R1_3  24
    RHS  R1_4  24
    RHS  R1_5  24
    RHS  R1_6  24
    RHS  R1_7  24
    RHS  R1_8  24
    RHS  R1_9  24
    RHS  R1_10  24
    RHS  R1_11  24
BOUNDS
 UP BND  X0_0  2
 UP BND  X0_1  2
 UP BND  X0_2  2
 UP BND  X0_3  2
 UP BND  X0_4  2
 UP BND  X0_5  2
 UP BND  X0_6  2
 UP BND  X0_7  2
 UP BND  X0_8  2
 UP BND  X0_9  2
 UP BND  X0_10  2
 UP BND  X0_11  2
 UP BND  X1_0  2
 UP BND  X1_1  2
 UP BND  X1_2  2
 UP BND  X1_3  2
 UP BND  X1_4  2
 UP BND  X1_5  2
 UP BND  X1_6  2
 UP BND  X1_7  2
 UP BND  X1_8  2
 UP BND  X1_9  2
 UP BND  X1_10  2
 UP BND  X1_11  2
ENDATA
